ODB Name,Step,Frame,Part Instance Name,    êﬂì_ÉâÉxÉã,X,Y,Z,Section Name,Material Name,Section Point,   U-Magnitude,          U-U1,          U-U2,       S-Mises
C:/temp/dataset/8/7_36.odb,Step-1,Increment      1: Step Time =    1.000,"PART-1-1",             1,            5.,           -5.,            0.,NA,NA,"",   356.549E-03,   136.976E-03,  -329.188E-03,   14.4925E-03
C:/temp/dataset/8/7_36.odb,Step-1,Increment      1: Step Time =    1.000,"PART-1-1",             2,            0.,           -5.,            0.,NA,NA,"",   320.474E-03,   120.887E-03,  -296.800E-03,   2.06982E-03
C:/temp/dataset/8/7_36.odb,Step-1,Increment      1: Step Time =    1.000,"PART-1-1",             3,            5.,         -12.5,            0.,NA,NA,"",   226.583E-03,   74.6489E-03,  -213.934E-03,   16.9647E-03
C:/temp/dataset/8/7_36.odb,Step-1,Increment      1: Step Time =    1.000,"PART-1-1",             4,            5.,          -20.,            0.,NA,NA,"",   87.4029E-03,   33.4400E-03,  -80.7529E-03,   20.1296E-03
C:/temp/dataset/8/7_36.odb,Step-1,Increment      1: Step Time =    1.000,"PART-1-1",             5,            0.,          -20.,            0.,NA,NA,"",   15.3561E-03,   10.2994E-03,  -11.3899E-03,   5.42698E-03
C:/temp/dataset/8/7_36.odb,Step-1,Increment      1: Step Time =    1.000,"PART-1-1",             6,           -5.,          -20.,            0.,NA,NA,"",   50.2873E-03,  -2.88820E-03,  -50.2043E-03,   15.2695E-03
C:/temp/dataset/8/7_36.odb,Step-1,Increment      1: Step Time =    1.000,"PART-1-1",             7,           -5.,           -5.,            0.,NA,NA,"",   246.570E-03,   113.695E-03,  -218.792E-03,   9.09134E-03
C:/temp/dataset/8/7_36.odb,Step-1,Increment      1: Step Time =    1.000,"PART-1-1",             8,            5.,           20.,            0.,NA,NA,"",   999.002E-03,   544.432E-03,  -837.615E-03,   41.8672E-03
C:/temp/dataset/8/7_36.odb,Step-1,Increment      1: Step Time =    1.000,"PART-1-1",             9,            0.,           20.,            0.,NA,NA,"",   932.484E-03,   396.122E-03,  -844.165E-03,   29.8498E-03
C:/temp/dataset/8/7_36.odb,Step-1,Increment      1: Step Time =    1.000,"PART-1-1",            10,            5.,          12.5,            0.,NA,NA,"",   757.904E-03,   479.084E-03,  -587.279E-03,   27.9803E-03
C:/temp/dataset/8/7_36.odb,Step-1,Increment      1: Step Time =    1.000,"PART-1-1",            11,            5.,            5.,            0.,NA,NA,"",   514.993E-03,   296.735E-03,  -420.911E-03,   18.0450E-03
C:/temp/dataset/8/7_36.odb,Step-1,Increment      1: Step Time =    1.000,"PART-1-1",            12,            0.,            5.,            0.,NA,NA,"",   395.068E-03,   247.958E-03,  -307.563E-03,   8.87477E-03
C:/temp/dataset/8/7_36.odb,Step-1,Increment      1: Step Time =    1.000,"PART-1-1",            13,           -5.,            5.,            0.,NA,NA,"",   336.740E-03,   203.472E-03,  -268.315E-03,   10.4741E-03
C:/temp/dataset/8/7_36.odb,Step-1,Increment      1: Step Time =    1.000,"PART-1-1",            14,           -5.,           20.,            0.,NA,NA,"",   635.477E-03,   336.999E-03,  -538.760E-03,   33.5499E-03
C:/temp/dataset/8/7_36.odb,Step-1,Increment      1: Step Time =    1.000,"PART-1-1",            15,           15.,           30.,            0.,NA,NA,"",   932.579E-03,   540.529E-03,  -759.955E-03,   180.410E-06
C:/temp/dataset/8/7_36.odb,Step-1,Increment      1: Step Time =    1.000,"PART-1-1",            16,           7.5,           30.,            0.,NA,NA,"",       1.10701,   529.000E-03,  -972.439E-03,   20.2511E-03
C:/temp/dataset/8/7_36.odb,Step-1,Increment      1: Step Time =    1.000,"PART-1-1",            17,            0.,           30.,            0.,NA,NA,"",       1.15672,   692.407E-03,  -926.596E-03,   27.2641E-03
C:/temp/dataset/8/7_36.odb,Step-1,Increment      1: Step Time =    1.000,"PART-1-1",            18,          -15.,           30.,            0.,NA,NA,"",   747.464E-03,   728.372E-03,  -167.858E-03,   182.778E-06
C:/temp/dataset/8/7_36.odb,Step-1,Increment      1: Step Time =    1.000,"PART-1-1",            19,          -15.,          -30.,            0.,NA,NA,"",            0.,  -3.61797E-39,  -6.08146E-39,   11.6721E-03
C:/temp/dataset/8/7_36.odb,Step-1,Increment      1: Step Time =    1.000,"PART-1-1",            20,           15.,          -30.,            0.,NA,NA,"",            0.,   9.90519E-39,  -16.5779E-39,   31.5797E-03
C:/temp/dataset/8/7_36.odb,Step-1,Increment      1: Step Time =    1.000,"PART-1-1",            21,           15.,      -20.1000,            0.,NA,NA,"",   200.844E-03,   100.604E-03,  -173.831E-03,   17.7073E-03
C:/temp/dataset/8/7_36.odb,Step-1,Increment      1: Step Time =    1.000,"PART-1-1",            22,           15.,      -10.0500,            0.,NA,NA,"",   379.479E-03,   172.148E-03,  -338.186E-03,   19.5540E-03
C:/temp/dataset/8/7_36.odb,Step-1,Increment      1: Step Time =    1.000,"PART-1-1",            23,           15.,            0.,            0.,NA,NA,"",   605.662E-03,   280.245E-03,  -536.926E-03,   23.5234E-03
C:/temp/dataset/8/7_36.odb,Step-1,Increment      1: Step Time =    1.000,"PART-1-1",            24,           15.,       9.90000,            0.,NA,NA,"",   867.698E-03,   503.271E-03,  -706.837E-03,   11.8455E-03
C:/temp/dataset/8/7_36.odb,Step-1,Increment      1: Step Time =    1.000,"PART-1-1",            25,           15.,       19.9500,            0.,NA,NA,"",   992.272E-03,   634.574E-03,  -762.836E-03,   2.39799E-03
C:/temp/dataset/8/7_36.odb,Step-1,Increment      1: Step Time =    1.000,"PART-1-1",            26,           2.5,           -5.,            0.,NA,NA,"",   349.611E-03,   126.819E-03,  -325.799E-03,   4.68221E-03
C:/temp/dataset/8/7_36.odb,Step-1,Increment      1: Step Time =    1.000,"PART-1-1",            27,            5.,          -10.,            0.,NA,NA,"",   267.967E-03,   92.7335E-03,  -251.410E-03,   16.1044E-03
C:/temp/dataset/8/7_36.odb,Step-1,Increment      1: Step Time =    1.000,"PART-1-1",            28,            5.,          -7.5,            0.,NA,NA,"",   308.786E-03,   113.821E-03,  -287.043E-03,   16.8441E-03
C:/temp/dataset/8/7_36.odb,Step-1,Increment      1: Step Time =    1.000,"PART-1-1",            29,            5.,         -17.5,            0.,NA,NA,"",   142.170E-03,   44.2412E-03,  -135.111E-03,   19.5860E-03
C:/temp/dataset/8/7_36.odb,Step-1,Increment      1: Step Time =    1.000,"PART-1-1",            30,            5.,          -15.,            0.,NA,NA,"",   184.428E-03,   58.2877E-03,  -174.975E-03,   17.5542E-03
C:/temp/dataset/8/7_36.odb,Step-1,Increment      1: Step Time =    1.000,"PART-1-1",            31,           2.5,          -20.,            0.,NA,NA,"",   34.5194E-03,   23.5775E-03,  -25.2129E-03,   6.79719E-03
C:/temp/dataset/8/7_36.odb,Step-1,Increment      1: Step Time =    1.000,"PART-1-1",            32,          -2.5,          -20.,            0.,NA,NA,"",   16.1617E-03,  -345.145E-06,  -16.1580E-03,   4.23654E-03
C:/temp/dataset/8/7_36.odb,Step-1,Increment      1: Step Time =    1.000,"PART-1-1",            33,           -5.,          -7.5,            0.,NA,NA,"",   211.445E-03,   89.2790E-03,  -191.673E-03,   10.4617E-03
C:/temp/dataset/8/7_36.odb,Step-1,Increment      1: Step Time =    1.000,"PART-1-1",            34,           -5.,          -10.,            0.,NA,NA,"",   181.270E-03,   66.1114E-03,  -168.784E-03,   10.5880E-03
C:/temp/dataset/8/7_36.odb,Step-1,Increment      1: Step Time =    1.000,"PART-1-1",            35,           -5.,         -12.5,            0.,NA,NA,"",   150.752E-03,   44.9033E-03,  -143.909E-03,   11.4276E-03
C:/temp/dataset/8/7_36.odb,Step-1,Increment      1: Step Time =    1.000,"PART-1-1",            36,           -5.,          -15.,            0.,NA,NA,"",   120.336E-03,   26.6632E-03,  -117.345E-03,   12.0370E-03
C:/temp/dataset/8/7_36.odb,Step-1,Increment      1: Step Time =    1.000,"PART-1-1",            37,           -5.,         -17.5,            0.,NA,NA,"",   90.3060E-03,   11.1596E-03,  -89.6138E-03,   14.4418E-03
C:/temp/dataset/8/7_36.odb,Step-1,Increment      1: Step Time =    1.000,"PART-1-1",            38,          -2.5,           -5.,            0.,NA,NA,"",   288.432E-03,   117.141E-03,  -263.574E-03,   2.33115E-03
C:/temp/dataset/8/7_36.odb,Step-1,Increment      1: Step Time =    1.000,"PART-1-1",            39,           2.5,           20.,            0.,NA,NA,"",       1.01468,   470.479E-03,  -899.009E-03,   34.2358E-03
C:/temp/dataset/8/7_36.odb,Step-1,Increment      1: Step Time =    1.000,"PART-1-1",            40,            5.,           15.,            0.,NA,NA,"",   836.560E-03,   520.766E-03,  -654.702E-03,   31.4699E-03
C:/temp/dataset/8/7_36.odb,Step-1,Increment      1: Step Time =    1.000,"PART-1-1",            41,            5.,          17.5,            0.,NA,NA,"",   912.745E-03,   548.824E-03,  -729.313E-03,   38.1483E-03
C:/temp/dataset/8/7_36.odb,Step-1,Increment      1: Step Time =    1.000,"PART-1-1",            42,            5.,           7.5,            0.,NA,NA,"",   600.222E-03,   367.106E-03,  -474.869E-03,   22.4330E-03
C:/temp/dataset/8/7_36.odb,Step-1,Increment      1: Step Time =    1.000,"PART-1-1",            43,            5.,           10.,            0.,NA,NA,"",   678.348E-03,   426.728E-03,  -527.313E-03,   24.6281E-03
C:/temp/dataset/8/7_36.odb,Step-1,Increment      1: Step Time =    1.000,"PART-1-1",            44,           2.5,            5.,            0.,NA,NA,"",   439.880E-03,   269.094E-03,  -347.970E-03,   10.6226E-03
C:/temp/dataset/8/7_36.odb,Step-1,Increment      1: Step Time =    1.000,"PART-1-1",            45,          -2.5,            5.,            0.,NA,NA,"",   360.290E-03,   228.463E-03,  -278.592E-03,   9.20949E-03
C:/temp/dataset/8/7_36.odb,Step-1,Increment      1: Step Time =    1.000,"PART-1-1",            46,           -5.,          17.5,            0.,NA,NA,"",   543.173E-03,   292.435E-03,  -457.732E-03,   26.9305E-03
C:/temp/dataset/8/7_36.odb,Step-1,Increment      1: Step Time =    1.000,"PART-1-1",            47,           -5.,           15.,            0.,NA,NA,"",   481.660E-03,   254.943E-03,  -408.657E-03,   20.5558E-03
C:/temp/dataset/8/7_36.odb,Step-1,Increment      1: Step Time =    1.000,"PART-1-1",            48,           -5.,          12.5,            0.,NA,NA,"",   429.811E-03,   227.237E-03,  -364.829E-03,   17.9861E-03
C:/temp/dataset/8/7_36.odb,Step-1,Increment      1: Step Time =    1.000,"PART-1-1",            49,           -5.,           10.,            0.,NA,NA,"",   388.835E-03,   209.455E-03,  -327.599E-03,   15.2462E-03
C:/temp/dataset/8/7_36.odb,Step-1,Increment      1: Step Time =    1.000,"PART-1-1",            50,           -5.,           7.5,            0.,NA,NA,"",   357.613E-03,   200.126E-03,  -296.372E-03,   12.5487E-03
C:/temp/dataset/8/7_36.odb,Step-1,Increment      1: Step Time =    1.000,"PART-1-1",            51,          -2.5,           20.,            0.,NA,NA,"",   802.482E-03,   344.391E-03,  -724.825E-03,   16.3505E-03
C:/temp/dataset/8/7_36.odb,Step-1,Increment      1: Step Time =    1.000,"PART-1-1",            52,          12.5,           30.,            0.,NA,NA,"",   966.440E-03,   539.125E-03,  -802.091E-03,   2.22454E-03
C:/temp/dataset/8/7_36.odb,Step-1,Increment      1: Step Time =    1.000,"PART-1-1",            53,           10.,           30.,            0.,NA,NA,"",       1.01048,   533.898E-03,  -857.923E-03,   4.90830E-03
C:/temp/dataset/8/7_36.odb,Step-1,Increment      1: Step Time =    1.000,"PART-1-1",            54,            5.,           30.,            0.,NA,NA,"",       1.21266,   573.834E-03,      -1.06830,   39.1324E-03
C:/temp/dataset/8/7_36.odb,Step-1,Increment      1: Step Time =    1.000,"PART-1-1",            55,           2.5,           30.,            0.,NA,NA,"",       1.22738,   624.735E-03,      -1.05649,   42.0275E-03
C:/temp/dataset/8/7_36.odb,Step-1,Increment      1: Step Time =    1.000,"PART-1-1",            56,          -2.5,           30.,            0.,NA,NA,"",       1.03774,   717.636E-03,  -749.600E-03,   10.0245E-03
C:/temp/dataset/8/7_36.odb,Step-1,Increment      1: Step Time =    1.000,"PART-1-1",            57,           -5.,           30.,            0.,NA,NA,"",   953.753E-03,   731.970E-03,  -611.444E-03,   1.29048E-03
C:/temp/dataset/8/7_36.odb,Step-1,Increment      1: Step Time =    1.000,"PART-1-1",            58,          -7.5,           30.,            0.,NA,NA,"",   879.273E-03,   732.784E-03,  -485.951E-03,   2.48567E-03
C:/temp/dataset/8/7_36.odb,Step-1,Increment      1: Step Time =    1.000,"PART-1-1",            59,          -10.,           30.,            0.,NA,NA,"",   819.061E-03,   728.819E-03,  -373.744E-03,   2.72018E-03
C:/temp/dataset/8/7_36.odb,Step-1,Increment      1: Step Time =    1.000,"PART-1-1",            60,         -12.5,           30.,            0.,NA,NA,"",   775.360E-03,   726.757E-03,  -270.200E-03,   903.153E-06
C:/temp/dataset/8/7_36.odb,Step-1,Increment      1: Step Time =    1.000,"PART-1-1",            61,          -15.,          27.5,            0.,NA,NA,"",   646.168E-03,   624.443E-03,  -166.145E-03,   867.159E-06
C:/temp/dataset/8/7_36.odb,Step-1,Increment      1: Step Time =    1.000,"PART-1-1",            62,          -15.,           25.,            0.,NA,NA,"",   547.449E-03,   520.832E-03,  -168.624E-03,   3.16419E-03
C:/temp/dataset/8/7_36.odb,Step-1,Increment      1: Step Time =    1.000,"PART-1-1",            63,          -15.,          22.5,            0.,NA,NA,"",   458.813E-03,   423.600E-03,  -176.275E-03,   5.46299E-03
C:/temp/dataset/8/7_36.odb,Step-1,Increment      1: Step Time =    1.000,"PART-1-1",            64,          -15.,           20.,            0.,NA,NA,"",   388.169E-03,   338.990E-03,  -189.105E-03,   6.86924E-03
C:/temp/dataset/8/7_36.odb,Step-1,Increment      1: Step Time =    1.000,"PART-1-1",            65,          -15.,          17.5,            0.,NA,NA,"",   340.186E-03,   272.157E-03,  -204.100E-03,   6.74230E-03
C:/temp/dataset/8/7_36.odb,Step-1,Increment      1: Step Time =    1.000,"PART-1-1",            66,          -15.,           15.,            0.,NA,NA,"",   312.169E-03,   224.384E-03,  -217.029E-03,   4.84894E-03
C:/temp/dataset/8/7_36.odb,Step-1,Increment      1: Step Time =    1.000,"PART-1-1",            67,          -15.,          12.5,            0.,NA,NA,"",   296.169E-03,   193.017E-03,  -224.634E-03,   2.01262E-03
C:/temp/dataset/8/7_36.odb,Step-1,Increment      1: Step Time =    1.000,"PART-1-1",            68,          -15.,           10.,            0.,NA,NA,"",   284.694E-03,   173.849E-03,  -225.448E-03,   1.24452E-03
C:/temp/dataset/8/7_36.odb,Step-1,Increment      1: Step Time =    1.000,"PART-1-1",            69,          -15.,           7.5,            0.,NA,NA,"",   272.408E-03,   162.300E-03,  -218.781E-03,   4.60988E-03
C:/temp/dataset/8/7_36.odb,Step-1,Increment      1: Step Time =    1.000,"PART-1-1",            70,          -15.,            5.,            0.,NA,NA,"",   256.169E-03,   153.529E-03,  -205.065E-03,   7.62521E-03
C:/temp/dataset/8/7_36.odb,Step-1,Increment      1: Step Time =    1.000,"PART-1-1",            71,          -15.,           2.5,            0.,NA,NA,"",   234.054E-03,   142.840E-03,  -185.412E-03,   9.65764E-03
C:/temp/dataset/8/7_36.odb,Step-1,Increment      1: Step Time =    1.000,"PART-1-1",            72,          -15.,            0.,            0.,NA,NA,"",   206.444E-03,   126.969E-03,  -162.782E-03,   10.1928E-03
C:/temp/dataset/8/7_36.odb,Step-1,Increment      1: Step Time =    1.000,"PART-1-1",            73,          -15.,          -2.5,            0.,NA,NA,"",   175.544E-03,   105.588E-03,  -140.239E-03,   9.48393E-03
C:/temp/dataset/8/7_36.odb,Step-1,Increment      1: Step Time =    1.000,"PART-1-1",            74,          -15.,           -5.,            0.,NA,NA,"",   144.502E-03,   80.5588E-03,  -119.963E-03,   8.27357E-03
C:/temp/dataset/8/7_36.odb,Step-1,Increment      1: Step Time =    1.000,"PART-1-1",            75,          -15.,          -7.5,            0.,NA,NA,"",   116.518E-03,   54.6198E-03,  -102.923E-03,   6.96123E-03
C:/temp/dataset/8/7_36.odb,Step-1,Increment      1: Step Time =    1.000,"PART-1-1",            76,          -15.,          -10.,            0.,NA,NA,"",   93.5434E-03,   30.1325E-03,  -88.5574E-03,   5.79628E-03
C:/temp/dataset/8/7_36.odb,Step-1,Increment      1: Step Time =    1.000,"PART-1-1",            77,          -15.,         -12.5,            0.,NA,NA,"",   76.9828E-03,   8.57378E-03,  -76.5039E-03,   4.86352E-03
C:/temp/dataset/8/7_36.odb,Step-1,Increment      1: Step Time =    1.000,"PART-1-1",            78,          -15.,          -15.,            0.,NA,NA,"",   67.0086E-03,  -8.86186E-03,  -66.4200E-03,   4.09880E-03
C:/temp/dataset/8/7_36.odb,Step-1,Increment      1: Step Time =    1.000,"PART-1-1",            79,          -15.,         -17.5,            0.,NA,NA,"",   61.5332E-03,  -21.0479E-03,  -57.8215E-03,   3.66136E-03
C:/temp/dataset/8/7_36.odb,Step-1,Increment      1: Step Time =    1.000,"PART-1-1",            80,          -15.,          -20.,            0.,NA,NA,"",   56.6906E-03,  -27.2764E-03,  -49.6973E-03,   3.74861E-03
C:/temp/dataset/8/7_36.odb,Step-1,Increment      1: Step Time =    1.000,"PART-1-1",            81,          -15.,         -22.5,            0.,NA,NA,"",   49.4164E-03,  -28.0257E-03,  -40.7006E-03,   4.37867E-03
C:/temp/dataset/8/7_36.odb,Step-1,Increment      1: Step Time =    1.000,"PART-1-1",            82,          -15.,          -25.,            0.,NA,NA,"",   38.8268E-03,  -24.4194E-03,  -30.1862E-03,   4.86449E-03
C:/temp/dataset/8/7_36.odb,Step-1,Increment      1: Step Time =    1.000,"PART-1-1",            83,          -15.,         -27.5,            0.,NA,NA,"",   24.7292E-03,  -16.8339E-03,  -18.1151E-03,   6.47155E-03
C:/temp/dataset/8/7_36.odb,Step-1,Increment      1: Step Time =    1.000,"PART-1-1",            84,         -12.5,          -30.,            0.,NA,NA,"",            0.,  -3.80773E-39,  -15.9325E-39,   5.29575E-03
C:/temp/dataset/8/7_36.odb,Step-1,Increment      1: Step Time =    1.000,"PART-1-1",            85,          -10.,          -30.,            0.,NA,NA,"",            0.,  -7.64173E-39,  -16.9255E-39,   5.28717E-03
C:/temp/dataset/8/7_36.odb,Step-1,Increment      1: Step Time =    1.000,"PART-1-1",            86,          -7.5,          -30.,            0.,NA,NA,"",            0.,   4.86137E-39,  -17.2103E-39,   4.68086E-03
C:/temp/dataset/8/7_36.odb,Step-1,Increment      1: Step Time =    1.000,"PART-1-1",            87,           -5.,          -30.,            0.,NA,NA,"",            0.,  -3.40319E-39,  -12.4011E-39,   4.01001E-03
C:/temp/dataset/8/7_36.odb,Step-1,Increment      1: Step Time =    1.000,"PART-1-1",            88,          -2.5,          -30.,            0.,NA,NA,"",            0.,  -3.49326E-39,  -10.8834E-39,   3.25319E-03
C:/temp/dataset/8/7_36.odb,Step-1,Increment      1: Step Time =    1.000,"PART-1-1",            89,            0.,          -30.,            0.,NA,NA,"",            0.,   2.81675E-39,  -10.2785E-39,   3.55533E-03
C:/temp/dataset/8/7_36.odb,Step-1,Increment      1: Step Time =    1.000,"PART-1-1",            90,           2.5,          -30.,            0.,NA,NA,"",            0.,  -11.8851E-39,  -18.2708E-39,   5.30870E-03
C:/temp/dataset/8/7_36.odb,Step-1,Increment      1: Step Time =    1.000,"PART-1-1",            91,            5.,          -30.,            0.,NA,NA,"",            0.,   3.22569E-39,  -25.0366E-39,   7.59627E-03
C:/temp/dataset/8/7_36.odb,Step-1,Increment      1: Step Time =    1.000,"PART-1-1",            92,           7.5,          -30.,            0.,NA,NA,"",            0.,  -12.3453E-39,  -31.2461E-39,   9.95123E-03
C:/temp/dataset/8/7_36.odb,Step-1,Increment      1: Step Time =    1.000,"PART-1-1",            93,           10.,          -30.,            0.,NA,NA,"",            0.,   13.4216E-39,  -46.4054E-39,   12.5000E-03
C:/temp/dataset/8/7_36.odb,Step-1,Increment      1: Step Time =    1.000,"PART-1-1",            94,          12.5,          -30.,            0.,NA,NA,"",            0.,   7.07660E-39,  -43.8573E-39,   13.7843E-03
C:/temp/dataset/8/7_36.odb,Step-1,Increment      1: Step Time =    1.000,"PART-1-1",            95,           15.,      -27.5250,            0.,NA,NA,"",   66.6540E-03,   41.2006E-03,  -52.3952E-03,   21.0915E-03
C:/temp/dataset/8/7_36.odb,Step-1,Increment      1: Step Time =    1.000,"PART-1-1",            96,           15.,      -25.0500,            0.,NA,NA,"",   112.115E-03,   62.6913E-03,  -92.9488E-03,   18.3858E-03
C:/temp/dataset/8/7_36.odb,Step-1,Increment      1: Step Time =    1.000,"PART-1-1",            97,           15.,      -22.5750,            0.,NA,NA,"",   156.743E-03,   81.6604E-03,  -133.791E-03,   18.2312E-03
C:/temp/dataset/8/7_36.odb,Step-1,Increment      1: Step Time =    1.000,"PART-1-1",            98,           15.,      -17.5875,            0.,NA,NA,"",   244.715E-03,   119.418E-03,  -213.600E-03,   17.6456E-03
C:/temp/dataset/8/7_36.odb,Step-1,Increment      1: Step Time =    1.000,"PART-1-1",            99,           15.,      -15.0750,            0.,NA,NA,"",   288.372E-03,   137.213E-03,  -253.635E-03,   17.9691E-03
C:/temp/dataset/8/7_36.odb,Step-1,Increment      1: Step Time =    1.000,"PART-1-1",           100,           15.,      -12.5625,            0.,NA,NA,"",   332.980E-03,   154.438E-03,  -294.999E-03,   18.6725E-03
C:/temp/dataset/8/7_36.odb,Step-1,Increment      1: Step Time =    1.000,"PART-1-1",           101,           15.,      -7.53750,            0.,NA,NA,"",   428.753E-03,   191.464E-03,  -383.628E-03,   20.6806E-03
C:/temp/dataset/8/7_36.odb,Step-1,Increment      1: Step Time =    1.000,"PART-1-1",           102,           15.,      -5.02500,            0.,NA,NA,"",   482.154E-03,   214.071E-03,  -432.025E-03,   22.0659E-03
C:/temp/dataset/8/7_36.odb,Step-1,Increment      1: Step Time =    1.000,"PART-1-1",           103,           15.,      -2.51250,            0.,NA,NA,"",   540.956E-03,   242.650E-03,  -483.481E-03,   23.3006E-03
C:/temp/dataset/8/7_36.odb,Step-1,Increment      1: Step Time =    1.000,"PART-1-1",           104,           15.,       2.47500,            0.,NA,NA,"",   673.768E-03,   327.684E-03,  -588.716E-03,   21.9968E-03
C:/temp/dataset/8/7_36.odb,Step-1,Increment      1: Step Time =    1.000,"PART-1-1",           105,           15.,       4.95000,            0.,NA,NA,"",   742.851E-03,   383.785E-03,  -636.032E-03,   19.2887E-03
C:/temp/dataset/8/7_36.odb,Step-1,Increment      1: Step Time =    1.000,"PART-1-1",           106,           15.,       7.42500,            0.,NA,NA,"",   808.652E-03,   444.288E-03,  -675.668E-03,   15.5832E-03
C:/temp/dataset/8/7_36.odb,Step-1,Increment      1: Step Time =    1.000,"PART-1-1",           107,           15.,       12.4125,            0.,NA,NA,"",   917.684E-03,   556.141E-03,  -729.967E-03,   8.39161E-03
C:/temp/dataset/8/7_36.odb,Step-1,Increment      1: Step Time =    1.000,"PART-1-1",           108,           15.,       14.9250,            0.,NA,NA,"",   955.611E-03,   597.411E-03,  -745.850E-03,   5.50314E-03
C:/temp/dataset/8/7_36.odb,Step-1,Increment      1: Step Time =    1.000,"PART-1-1",           109,           15.,       17.4375,            0.,NA,NA,"",   980.187E-03,   623.815E-03,  -756.056E-03,   3.62080E-03
C:/temp/dataset/8/7_36.odb,Step-1,Increment      1: Step Time =    1.000,"PART-1-1",           110,           15.,       22.4625,            0.,NA,NA,"",   993.280E-03,   631.479E-03,  -766.707E-03,   669.257E-06
C:/temp/dataset/8/7_36.odb,Step-1,Increment      1: Step Time =    1.000,"PART-1-1",           111,           15.,       24.9750,            0.,NA,NA,"",   981.967E-03,   614.670E-03,  -765.793E-03,   1.64287E-03
C:/temp/dataset/8/7_36.odb,Step-1,Increment      1: Step Time =    1.000,"PART-1-1",           112,           15.,       27.4875,            0.,NA,NA,"",   958.534E-03,   582.286E-03,  -761.400E-03,   1.70214E-03
C:/temp/dataset/8/7_36.odb,Step-1,Increment      1: Step Time =    1.000,"PART-1-1",           113,       13.1072,       7.69700,            0.,NA,NA,"",   773.630E-03,   438.009E-03,  -637.693E-03,   16.5516E-03
C:/temp/dataset/8/7_36.odb,Step-1,Increment      1: Step Time =    1.000,"PART-1-1",           114,       12.9209,      -22.7091,            0.,NA,NA,"",   132.538E-03,   63.5320E-03,  -116.319E-03,   17.9556E-03
C:/temp/dataset/8/7_36.odb,Step-1,Increment      1: Step Time =    1.000,"PART-1-1",           115,       12.1836,      -25.1316,            0.,NA,NA,"",   81.6387E-03,   38.8100E-03,  -71.8239E-03,   18.3584E-03
C:/temp/dataset/8/7_36.odb,Step-1,Increment      1: Step Time =    1.000,"PART-1-1",           116,       12.5983,   113.555E-03,            0.,NA,NA,"",   561.109E-03,   258.496E-03,  -498.019E-03,   20.2772E-03
C:/temp/dataset/8/7_36.odb,Step-1,Increment      1: Step Time =    1.000,"PART-1-1",           117,       12.7905,       5.42944,            0.,NA,NA,"",   705.500E-03,   377.447E-03,  -596.040E-03,   18.4962E-03
C:/temp/dataset/8/7_36.odb,Step-1,Increment      1: Step Time =    1.000,"PART-1-1",           118,       12.0087,       2.86964,            0.,NA,NA,"",   619.696E-03,   308.465E-03,  -537.468E-03,   19.5906E-03
C:/temp/dataset/8/7_36.odb,Step-1,Increment      1: Step Time =    1.000,"PART-1-1",           119,       6.98133,      -9.77136,            0.,NA,NA,"",   292.296E-03,   109.305E-03,  -271.089E-03,   17.0361E-03
C:/temp/dataset/8/7_36.odb,Step-1,Increment      1: Step Time =    1.000,"PART-1-1",           120,       7.90844,      -27.9171,            0.,NA,NA,"",   18.6557E-03,   161.342E-06,  -18.6550E-03,   11.5342E-03
C:/temp/dataset/8/7_36.odb,Step-1,Increment      1: Step Time =    1.000,"PART-1-1",           121,      -2.46872,      -27.6632,            0.,NA,NA,"",   5.16512E-03,   611.035E-06,  -5.12885E-03,   3.14943E-03
C:/temp/dataset/8/7_36.odb,Step-1,Increment      1: Step Time =    1.000,"PART-1-1",           122,      -12.5126,      -12.5666,            0.,NA,NA,"",   94.9643E-03,   14.3909E-03,  -93.8676E-03,   6.65983E-03
C:/temp/dataset/8/7_36.odb,Step-1,Increment      1: Step Time =    1.000,"PART-1-1",           123,      -12.5815,       17.4815,            0.,NA,NA,"",   373.968E-03,   267.288E-03,  -261.551E-03,   1.86431E-03
C:/temp/dataset/8/7_36.odb,Step-1,Increment      1: Step Time =    1.000,"PART-1-1",           124,      -2.62887,      -2.48638,            0.,NA,NA,"",   304.083E-03,   150.088E-03,  -264.462E-03,   1.38769E-03
C:/temp/dataset/8/7_36.odb,Step-1,Increment      1: Step Time =    1.000,"PART-1-1",           125,      -2.40475,       2.52951,            0.,NA,NA,"",   341.481E-03,   206.126E-03,  -272.252E-03,   3.58735E-03
C:/temp/dataset/8/7_36.odb,Step-1,Increment      1: Step Time =    1.000,"PART-1-1",           126,       2.45017,      -2.57003,            0.,NA,NA,"",   361.993E-03,   150.993E-03,  -328.998E-03,   1.47398E-03
C:/temp/dataset/8/7_36.odb,Step-1,Increment      1: Step Time =    1.000,"PART-1-1",           127,       2.64402,       2.44720,            0.,NA,NA,"",   406.128E-03,   221.448E-03,  -340.441E-03,   3.20838E-03
C:/temp/dataset/8/7_36.odb,Step-1,Increment      1: Step Time =    1.000,"PART-1-1",           128,       7.27469,       27.6230,            0.,NA,NA,"",       1.12310,   590.370E-03,  -955.412E-03,   32.3111E-03
C:/temp/dataset/8/7_36.odb,Step-1,Increment      1: Step Time =    1.000,"PART-1-1",           129,       2.48679,       22.6352,            0.,NA,NA,"",       1.05485,   493.465E-03,  -932.312E-03,   14.0869E-03
C:/temp/dataset/8/7_36.odb,Step-1,Increment      1: Step Time =    1.000,"PART-1-1",           130,   4.73057E-03,       27.5452,            0.,NA,NA,"",       1.07611,   576.471E-03,  -908.672E-03,   27.4373E-03
C:/temp/dataset/8/7_36.odb,Step-1,Increment      1: Step Time =    1.000,"PART-1-1",           131,      -2.67861,       22.9024,            0.,NA,NA,"",   867.207E-03,   460.022E-03,  -735.138E-03,   23.8169E-03
C:/temp/dataset/8/7_36.odb,Step-1,Increment      1: Step Time =    1.000,"PART-1-1",           132,      -12.4942,       19.9650,            0.,NA,NA,"",   424.447E-03,   332.373E-03,  -263.977E-03,   964.857E-06
C:/temp/dataset/8/7_36.odb,Step-1,Increment      1: Step Time =    1.000,"PART-1-1",           133,      -7.56680,       17.4386,            0.,NA,NA,"",   479.279E-03,   273.276E-03,  -393.736E-03,   16.5005E-03
C:/temp/dataset/8/7_36.odb,Step-1,Increment      1: Step Time =    1.000,"PART-1-1",           134,       7.64811,       17.7092,            0.,NA,NA,"",   941.685E-03,   584.772E-03,  -738.114E-03,   23.4415E-03
C:/temp/dataset/8/7_36.odb,Step-1,Increment      1: Step Time =    1.000,"PART-1-1",           135,      -9.58788,      -27.7112,            0.,NA,NA,"",   11.2404E-03,  -4.36311E-03,  -10.3591E-03,   5.96427E-03
C:/temp/dataset/8/7_36.odb,Step-1,Increment      1: Step Time =    1.000,"PART-1-1",           136,       4.77230,      -2.62442,            0.,NA,NA,"",   382.791E-03,   155.051E-03,  -349.983E-03,   8.22891E-03
C:/temp/dataset/8/7_36.odb,Step-1,Increment      1: Step Time =    1.000,"PART-1-1",           137,       7.77605,      -12.2161,            0.,NA,NA,"",   259.263E-03,   98.0452E-03,  -240.009E-03,   17.4261E-03
C:/temp/dataset/8/7_36.odb,Step-1,Increment      1: Step Time =    1.000,"PART-1-1",           138,       7.25866,      -19.5166,            0.,NA,NA,"",   130.621E-03,   48.2027E-03,  -121.402E-03,   15.1795E-03
C:/temp/dataset/8/7_36.odb,Step-1,Increment      1: Step Time =    1.000,"PART-1-1",           139,      -4.84221,      -22.7118,            0.,NA,NA,"",   27.9060E-03,   3.23862E-03,  -27.7174E-03,   7.91740E-03
C:/temp/dataset/8/7_36.odb,Step-1,Increment      1: Step Time =    1.000,"PART-1-1",           140,      -12.1835,      -27.1471,            0.,NA,NA,"",   18.5206E-03,  -11.4072E-03,  -14.5907E-03,   6.84445E-03
C:/temp/dataset/8/7_36.odb,Step-1,Increment      1: Step Time =    1.000,"PART-1-1",           141,      -12.5060,       10.0400,            0.,NA,NA,"",   304.534E-03,   177.204E-03,  -247.669E-03,   6.34583E-03
C:/temp/dataset/8/7_36.odb,Step-1,Increment      1: Step Time =    1.000,"PART-1-1",           142,      -12.8419,       4.62256,            0.,NA,NA,"",   267.809E-03,   159.839E-03,  -214.879E-03,   8.25342E-03
C:/temp/dataset/8/7_36.odb,Step-1,Increment      1: Step Time =    1.000,"PART-1-1",           143,      -12.8499,  -39.9835E-03,            0.,NA,NA,"",   224.608E-03,   135.991E-03,  -178.761E-03,   8.92442E-03
C:/temp/dataset/8/7_36.odb,Step-1,Increment      1: Step Time =    1.000,"PART-1-1",           144,      -13.3239,      -5.02776,            0.,NA,NA,"",   161.035E-03,   86.3588E-03,  -135.920E-03,   8.12649E-03
C:/temp/dataset/8/7_36.odb,Step-1,Increment      1: Step Time =    1.000,"PART-1-1",           145,      -7.45277,      -10.1617,            0.,NA,NA,"",   155.927E-03,   53.6422E-03,  -146.409E-03,   9.53347E-03
C:/temp/dataset/8/7_36.odb,Step-1,Increment      1: Step Time =    1.000,"PART-1-1",           146,  -27.8758E-03,      -2.52525,            0.,NA,NA,"",   333.741E-03,   150.503E-03,  -297.880E-03,   1.00505E-03
C:/temp/dataset/8/7_36.odb,Step-1,Increment      1: Step Time =    1.000,"PART-1-1",           147,       4.82974,       22.7243,            0.,NA,NA,"",       1.05632,   529.501E-03,  -914.019E-03,   34.2848E-03
C:/temp/dataset/8/7_36.odb,Step-1,Increment      1: Step Time =    1.000,"PART-1-1",           148,       7.38047,       9.75754,            0.,NA,NA,"",   724.598E-03,   445.313E-03,  -571.610E-03,   21.5395E-03
C:/temp/dataset/8/7_36.odb,Step-1,Increment      1: Step Time =    1.000,"PART-1-1",           149,       7.06669,       7.50812,            0.,NA,NA,"",   650.876E-03,   385.918E-03,  -524.126E-03,   19.4019E-03
C:/temp/dataset/8/7_36.odb,Step-1,Increment      1: Step Time =    1.000,"PART-1-1",           150,   54.6531E-03,       2.48775,            0.,NA,NA,"",   369.249E-03,   213.890E-03,  -300.991E-03,   3.73058E-03
C:/temp/dataset/8/7_36.odb,Step-1,Increment      1: Step Time =    1.000,"PART-1-1",           151,      -4.69755,       2.58666,            0.,NA,NA,"",   322.800E-03,   197.266E-03,  -255.512E-03,   6.08145E-03
C:/temp/dataset/8/7_36.odb,Step-1,Increment      1: Step Time =    1.000,"PART-1-1",           152,      -12.4531,       27.7137,            0.,NA,NA,"",   686.175E-03,   631.038E-03,  -269.492E-03,   1.95915E-03
C:/temp/dataset/8/7_36.odb,Step-1,Increment      1: Step Time =    1.000,"PART-1-1",           153,      -11.8780,       25.1349,            0.,NA,NA,"",   597.048E-03,   522.253E-03,  -289.341E-03,   2.35402E-03
C:/temp/dataset/8/7_36.odb,Step-1,Increment      1: Step Time =    1.000,"PART-1-1",           154,      -12.3074,       22.4604,            0.,NA,NA,"",   497.256E-03,   417.091E-03,  -270.737E-03,   2.02347E-03
C:/temp/dataset/8/7_36.odb,Step-1,Increment      1: Step Time =    1.000,"PART-1-1",           155,      -7.54353,       19.8014,            0.,NA,NA,"",   535.627E-03,   328.845E-03,  -422.797E-03,   9.97788E-03
C:/temp/dataset/8/7_36.odb,Step-1,Increment      1: Step Time =    1.000,"PART-1-1",           156,   45.4396E-03,       22.6227,            0.,NA,NA,"",   989.142E-03,   467.784E-03,  -871.539E-03,   14.8557E-03
C:/temp/dataset/8/7_36.odb,Step-1,Increment      1: Step Time =    1.000,"PART-1-1",           157,       9.91939,       27.0382,            0.,NA,NA,"",       1.04180,   594.077E-03,  -855.811E-03,   13.0707E-03
C:/temp/dataset/8/7_36.odb,Step-1,Increment      1: Step Time =    1.000,"PART-1-1",           158,       4.86771,       27.6907,            0.,NA,NA,"",       1.17985,   581.758E-03,      -1.02645,   32.0196E-03
C:/temp/dataset/8/7_36.odb,Step-1,Increment      1: Step Time =    1.000,"PART-1-1",           159,       2.46310,       27.6480,            0.,NA,NA,"",       1.16661,   573.522E-03,      -1.01590,   28.2076E-03
C:/temp/dataset/8/7_36.odb,Step-1,Increment      1: Step Time =    1.000,"PART-1-1",           160,      -2.80472,       27.0882,            0.,NA,NA,"",   939.935E-03,   584.434E-03,  -736.149E-03,   18.7893E-03
C:/temp/dataset/8/7_36.odb,Step-1,Increment      1: Step Time =    1.000,"PART-1-1",           161,      -5.48605,       27.7688,            0.,NA,NA,"",   857.746E-03,   627.775E-03,  -584.488E-03,   7.77974E-03
C:/temp/dataset/8/7_36.odb,Step-1,Increment      1: Step Time =    1.000,"PART-1-1",           162,      -7.83752,       28.0673,            0.,NA,NA,"",   796.237E-03,   645.182E-03,  -466.620E-03,   2.33027E-03
C:/temp/dataset/8/7_36.odb,Step-1,Increment      1: Step Time =    1.000,"PART-1-1",           163,      -7.55682,       15.0000,            0.,NA,NA,"",   434.204E-03,   235.391E-03,  -364.862E-03,   15.3854E-03
C:/temp/dataset/8/7_36.odb,Step-1,Increment      1: Step Time =    1.000,"PART-1-1",           164,      -12.5962,       15.0033,            0.,NA,NA,"",   341.645E-03,   222.141E-03,  -259.565E-03,   3.63431E-03
C:/temp/dataset/8/7_36.odb,Step-1,Increment      1: Step Time =    1.000,"PART-1-1",           165,      -7.55941,       12.5503,            0.,NA,NA,"",   394.906E-03,   210.086E-03,  -334.387E-03,   13.4777E-03
C:/temp/dataset/8/7_36.odb,Step-1,Increment      1: Step Time =    1.000,"PART-1-1",           166,      -12.5765,       12.5372,            0.,NA,NA,"",   320.318E-03,   193.659E-03,  -255.146E-03,   5.02373E-03
C:/temp/dataset/8/7_36.odb,Step-1,Increment      1: Step Time =    1.000,"PART-1-1",           167,      -7.59139,       10.0650,            0.,NA,NA,"",   363.395E-03,   194.278E-03,  -307.102E-03,   11.9750E-03
C:/temp/dataset/8/7_36.odb,Step-1,Increment      1: Step Time =    1.000,"PART-1-1",           168,      -7.88191,       7.28317,            0.,NA,NA,"",   334.460E-03,   184.990E-03,  -278.644E-03,   10.4144E-03
C:/temp/dataset/8/7_36.odb,Step-1,Increment      1: Step Time =    1.000,"PART-1-1",           169,      -12.0831,       7.21074,            0.,NA,NA,"",   291.602E-03,   168.871E-03,  -237.727E-03,   8.05451E-03
C:/temp/dataset/8/7_36.odb,Step-1,Increment      1: Step Time =    1.000,"PART-1-1",           170,      -13.1416,       2.31003,            0.,NA,NA,"",   246.160E-03,   149.590E-03,  -195.494E-03,   8.81338E-03
C:/temp/dataset/8/7_36.odb,Step-1,Increment      1: Step Time =    1.000,"PART-1-1",           171,      -12.2759,      -2.89935,            0.,NA,NA,"",   196.277E-03,   112.680E-03,  -160.711E-03,   8.55351E-03
C:/temp/dataset/8/7_36.odb,Step-1,Increment      1: Step Time =    1.000,"PART-1-1",           172,      -7.56671,      -5.67297,            0.,NA,NA,"",   206.068E-03,   99.1262E-03,  -180.660E-03,   7.63906E-03
C:/temp/dataset/8/7_36.odb,Step-1,Increment      1: Step Time =    1.000,"PART-1-1",           173,      -7.39223,      -7.81567,            0.,NA,NA,"",   182.733E-03,   76.6548E-03,  -165.877E-03,   8.84865E-03
C:/temp/dataset/8/7_36.odb,Step-1,Increment      1: Step Time =    1.000,"PART-1-1",           174,      -12.2966,      -7.15451,            0.,NA,NA,"",   146.150E-03,   66.9426E-03,  -129.918E-03,   7.68123E-03
C:/temp/dataset/8/7_36.odb,Step-1,Increment      1: Step Time =    1.000,"PART-1-1",           175,      -12.4694,      -9.99482,            0.,NA,NA,"",   116.096E-03,   37.3982E-03,  -109.908E-03,   7.12506E-03
C:/temp/dataset/8/7_36.odb,Step-1,Increment      1: Step Time =    1.000,"PART-1-1",           176,      -7.49855,      -12.5983,            0.,NA,NA,"",   128.972E-03,   32.2282E-03,  -124.881E-03,   9.86807E-03
C:/temp/dataset/8/7_36.odb,Step-1,Increment      1: Step Time =    1.000,"PART-1-1",           177,      -7.51831,      -15.1107,            0.,NA,NA,"",   102.738E-03,   13.3862E-03,  -101.863E-03,   10.4889E-03
C:/temp/dataset/8/7_36.odb,Step-1,Increment      1: Step Time =    1.000,"PART-1-1",           178,      -12.5129,      -15.0992,            0.,NA,NA,"",   79.4890E-03,  -3.75525E-03,  -79.4003E-03,   6.20102E-03
C:/temp/dataset/8/7_36.odb,Step-1,Increment      1: Step Time =    1.000,"PART-1-1",           179,      -7.51265,      -17.6713,            0.,NA,NA,"",   79.5998E-03,  -1.34413E-03,  -79.5885E-03,   10.2245E-03
C:/temp/dataset/8/7_36.odb,Step-1,Increment      1: Step Time =    1.000,"PART-1-1",           180,      -12.5452,      -17.6264,            0.,NA,NA,"",   67.8099E-03,  -16.3506E-03,  -65.8092E-03,   5.77666E-03
C:/temp/dataset/8/7_36.odb,Step-1,Increment      1: Step Time =    1.000,"PART-1-1",           181,      -12.7276,      -20.0809,            0.,NA,NA,"",   57.6004E-03,  -22.6366E-03,  -52.9660E-03,   5.60445E-03
C:/temp/dataset/8/7_36.odb,Step-1,Increment      1: Step Time =    1.000,"PART-1-1",           182,      -13.0628,      -22.3163,            0.,NA,NA,"",   47.7795E-03,  -23.8060E-03,  -41.4266E-03,   5.66598E-03
C:/temp/dataset/8/7_36.odb,Step-1,Increment      1: Step Time =    1.000,"PART-1-1",           183,      -7.23303,      -27.7750,            0.,NA,NA,"",   9.10096E-03,  -923.374E-06,  -9.05400E-03,   5.27802E-03
C:/temp/dataset/8/7_36.odb,Step-1,Increment      1: Step Time =    1.000,"PART-1-1",           184,      -4.86055,      -27.7327,            0.,NA,NA,"",   7.29301E-03,   1.08380E-03,  -7.21203E-03,   4.14934E-03
C:/temp/dataset/8/7_36.odb,Step-1,Increment      1: Step Time =    1.000,"PART-1-1",           185,      -2.50927,      -22.6041,            0.,NA,NA,"",   13.4235E-03,   5.14354E-03,  -12.3990E-03,   4.77230E-03
C:/temp/dataset/8/7_36.odb,Step-1,Increment      1: Step Time =    1.000,"PART-1-1",           186,  -77.0891E-03,      -22.5757,            0.,NA,NA,"",   9.54640E-03,   4.71448E-03,  -8.30105E-03,   1.67482E-03
C:/temp/dataset/8/7_36.odb,Step-1,Increment      1: Step Time =    1.000,"PART-1-1",           187,  -14.9764E-03,      -27.4978,            0.,NA,NA,"",   5.41877E-03,  -2.19766E-03,  -4.95311E-03,   3.23252E-03
C:/temp/dataset/8/7_36.odb,Step-1,Increment      1: Step Time =    1.000,"PART-1-1",           188,       2.64148,      -22.7823,            0.,NA,NA,"",   20.6119E-03,   3.01388E-03,  -20.3903E-03,   4.69193E-03
C:/temp/dataset/8/7_36.odb,Step-1,Increment      1: Step Time =    1.000,"PART-1-1",           189,       2.81336,      -26.9767,            0.,NA,NA,"",   12.1280E-03,  -5.46270E-03,  -10.8280E-03,   4.85460E-03
C:/temp/dataset/8/7_36.odb,Step-1,Increment      1: Step Time =    1.000,"PART-1-1",           190,       5.52532,      -27.5935,            0.,NA,NA,"",   16.2458E-03,  -4.37477E-03,  -15.6457E-03,   8.45661E-03
C:/temp/dataset/8/7_36.odb,Step-1,Increment      1: Step Time =    1.000,"PART-1-1",           191,       10.2466,      -28.0300,            0.,NA,NA,"",   22.8707E-03,   6.82085E-03,  -21.8299E-03,   14.4029E-03
C:/temp/dataset/8/7_36.odb,Step-1,Increment      1: Step Time =    1.000,"PART-1-1",           192,       7.32380,      -17.2830,            0.,NA,NA,"",   168.766E-03,   63.1361E-03,  -156.512E-03,   18.0357E-03
C:/temp/dataset/8/7_36.odb,Step-1,Increment      1: Step Time =    1.000,"PART-1-1",           193,       7.51109,      -14.8717,            0.,NA,NA,"",   211.079E-03,   79.0998E-03,  -195.698E-03,   17.9177E-03
C:/temp/dataset/8/7_36.odb,Step-1,Increment      1: Step Time =    1.000,"PART-1-1",           194,       6.94800,      -7.47664,            0.,NA,NA,"",   329.806E-03,   127.566E-03,  -304.136E-03,   15.9101E-03
C:/temp/dataset/8/7_36.odb,Step-1,Increment      1: Step Time =    1.000,"PART-1-1",           195,       7.18328,       5.40883,            0.,NA,NA,"",   590.478E-03,   328.463E-03,  -490.690E-03,   18.7825E-03
C:/temp/dataset/8/7_36.odb,Step-1,Increment      1: Step Time =    1.000,"PART-1-1",           196,       8.12432,       12.3313,            0.,NA,NA,"",   812.985E-03,   510.083E-03,  -633.056E-03,   21.9017E-03
C:/temp/dataset/8/7_36.odb,Step-1,Increment      1: Step Time =    1.000,"PART-1-1",           197,       7.72271,       15.1164,            0.,NA,NA,"",   882.895E-03,   556.214E-03,  -685.660E-03,   24.3145E-03
C:/temp/dataset/8/7_36.odb,Step-1,Increment      1: Step Time =    1.000,"PART-1-1",           198,       12.5747,       27.4046,            0.,NA,NA,"",   990.580E-03,   585.111E-03,  -799.308E-03,   1.31459E-03
C:/temp/dataset/8/7_36.odb,Step-1,Increment      1: Step Time =    1.000,"PART-1-1",           199,       12.7332,       20.1953,            0.,NA,NA,"",   990.410E-03,   629.408E-03,  -764.695E-03,   8.40486E-03
C:/temp/dataset/8/7_36.odb,Step-1,Increment      1: Step Time =    1.000,"PART-1-1",           200,       12.7232,      -12.7379,            0.,NA,NA,"",   305.488E-03,   134.188E-03,  -274.438E-03,   18.3313E-03
C:/temp/dataset/8/7_36.odb,Step-1,Increment      1: Step Time =    1.000,"PART-1-1",           201,       12.5978,      -7.87838,            0.,NA,NA,"",   392.312E-03,   167.205E-03,  -354.896E-03,   19.0937E-03
C:/temp/dataset/8/7_36.odb,Step-1,Increment      1: Step Time =    1.000,"PART-1-1",           202,       12.5520,      -15.1937,            0.,NA,NA,"",   260.592E-03,   116.520E-03,  -233.091E-03,   17.9136E-03
C:/temp/dataset/8/7_36.odb,Step-1,Increment      1: Step Time =    1.000,"PART-1-1",           203,       12.2949,      -17.8873,            0.,NA,NA,"",   211.216E-03,   95.7936E-03,  -188.244E-03,   17.5297E-03
C:/temp/dataset/8/7_36.odb,Step-1,Increment      1: Step Time =    1.000,"PART-1-1",           204,       11.9648,      -5.07588,            0.,NA,NA,"",   437.111E-03,   185.375E-03,  -395.856E-03,   19.1401E-03
C:/temp/dataset/8/7_36.odb,Step-1,Increment      1: Step Time =    1.000,"PART-1-1",           205,       12.2814,       12.3946,            0.,NA,NA,"",   874.997E-03,   542.772E-03,  -686.308E-03,   14.2576E-03
C:/temp/dataset/8/7_36.odb,Step-1,Increment      1: Step Time =    1.000,"PART-1-1",           206,       12.5647,       15.1089,            0.,NA,NA,"",   931.364E-03,   590.950E-03,  -719.874E-03,   11.7298E-03
C:/temp/dataset/8/7_36.odb,Step-1,Increment      1: Step Time =    1.000,"PART-1-1",           207,       13.0607,       22.5349,            0.,NA,NA,"",       1.00010,   628.296E-03,  -778.105E-03,   6.58390E-03
C:/temp/dataset/8/7_36.odb,Step-1,Increment      1: Step Time =    1.000,"PART-1-1",           208,       12.7200,      -2.36234,            0.,NA,NA,"",   505.646E-03,   222.081E-03,  -454.266E-03,   20.3473E-03
C:/temp/dataset/8/7_36.odb,Step-1,Increment      1: Step Time =    1.000,"PART-1-1",           209,       12.7952,      -10.3683,            0.,NA,NA,"",   348.772E-03,   150.794E-03,  -314.489E-03,   18.7544E-03
C:/temp/dataset/8/7_36.odb,Step-1,Increment      1: Step Time =    1.000,"PART-1-1",           210,       12.9896,      -20.3905,            0.,NA,NA,"",   174.507E-03,   82.2266E-03,  -153.920E-03,   17.7015E-03
C:/temp/dataset/8/7_36.odb,Step-1,Increment      1: Step Time =    1.000,"PART-1-1",           211,       13.0547,       9.94817,            0.,NA,NA,"",   830.340E-03,   493.423E-03,  -667.831E-03,   14.6244E-03
C:/temp/dataset/8/7_36.odb,Step-1,Increment      1: Step Time =    1.000,"PART-1-1",           212,       12.5883,       17.6584,            0.,NA,NA,"",   967.254E-03,   618.167E-03,  -743.942E-03,   10.0124E-03
C:/temp/dataset/8/7_36.odb,Step-1,Increment      1: Step Time =    1.000,"PART-1-1",           213,       12.5551,      -27.7203,            0.,NA,NA,"",   39.3021E-03,   21.3574E-03,  -32.9926E-03,   19.0181E-03
C:/temp/dataset/8/7_36.odb,Step-1,Increment      1: Step Time =    1.000,"PART-1-1",           214,       9.89421,       4.65062,            0.,NA,NA,"",   625.927E-03,   332.585E-03,  -530.256E-03,   19.2854E-03
C:/temp/dataset/8/7_36.odb,Step-1,Increment      1: Step Time =    1.000,"PART-1-1",           215,       10.7595,       6.33224,            0.,NA,NA,"",   690.311E-03,   384.440E-03,  -573.355E-03,   18.6943E-03
C:/temp/dataset/8/7_36.odb,Step-1,Increment      1: Step Time =    1.000,"PART-1-1",           216,       9.75763,      -23.6493,            0.,NA,NA,"",   86.9213E-03,   31.4892E-03,  -81.0169E-03,   16.7400E-03
C:/temp/dataset/8/7_36.odb,Step-1,Increment      1: Step Time =    1.000,"PART-1-1",           217,       9.53699,       1.63659,            0.,NA,NA,"",   538.849E-03,   258.143E-03,  -472.991E-03,   18.7784E-03
C:/temp/dataset/8/7_36.odb,Step-1,Increment      1: Step Time =    1.000,"PART-1-1",           218,       11.2350,       8.14750,            0.,NA,NA,"",   750.042E-03,   435.965E-03,  -610.326E-03,   17.7882E-03
C:/temp/dataset/8/7_36.odb,Step-1,Increment      1: Step Time =    1.000,"PART-1-1",           219,       11.2098,      -20.8622,            0.,NA,NA,"",   148.378E-03,   64.5806E-03,  -133.587E-03,   17.3350E-03
C:/temp/dataset/8/7_36.odb,Step-1,Increment      1: Step Time =    1.000,"PART-1-1",           220,       11.0603,      -2.05600,            0.,NA,NA,"",   483.675E-03,   210.884E-03,  -435.281E-03,   18.8985E-03
C:/temp/dataset/8/7_36.odb,Step-1,Increment      1: Step Time =    1.000,"PART-1-1",           221,       5.60149,       2.31416,            0.,NA,NA,"",   468.188E-03,   234.536E-03,  -405.208E-03,   13.5223E-03
C:/temp/dataset/8/7_36.odb,Step-1,Increment      1: Step Time =    1.000,"PART-1-1",           222,      -6.74223,       2.51529,            0.,NA,NA,"",   306.996E-03,   185.039E-03,  -244.963E-03,   9.81178E-03
C:/temp/dataset/8/7_36.odb,Step-1,Increment      1: Step Time =    1.000,"PART-1-1",           223,       7.48229,       20.3552,            0.,NA,NA,"",   989.260E-03,   583.458E-03,  -798.882E-03,   26.6110E-03
C:/temp/dataset/8/7_36.odb,Step-1,Increment      1: Step Time =    1.000,"PART-1-1",           224,      -7.41549,      -20.2834,            0.,NA,NA,"",   58.2383E-03,  -8.17767E-03,  -57.6613E-03,   8.11232E-03
C:/temp/dataset/8/7_36.odb,Step-1,Increment      1: Step Time =    1.000,"PART-1-1",           225,       7.68091,      -4.90617,            0.,NA,NA,"",   379.636E-03,   153.297E-03,  -347.309E-03,   15.1320E-03
C:/temp/dataset/8/7_36.odb,Step-1,Increment      1: Step Time =    1.000,"PART-1-1",           226,       7.32158,      -21.5125,            0.,NA,NA,"",   98.6357E-03,   30.5648E-03,  -93.7806E-03,   16.4921E-03
C:/temp/dataset/8/7_36.odb,Step-1,Increment      1: Step Time =    1.000,"PART-1-1",           227,      -5.66463,      -2.34251,            0.,NA,NA,"",   267.653E-03,   146.165E-03,  -224.219E-03,   6.41329E-03
C:/temp/dataset/8/7_36.odb,Step-1,Increment      1: Step Time =    1.000,"PART-1-1",           228,      -7.47529,       21.9155,            0.,NA,NA,"",   601.851E-03,   402.947E-03,  -447.055E-03,   12.0817E-03
C:/temp/dataset/8/7_36.odb,Step-1,Increment      1: Step Time =    1.000,"PART-1-1",           229,      -10.1614,       28.1082,            0.,NA,NA,"",   742.484E-03,   647.429E-03,  -363.480E-03,   1.37501E-03
C:/temp/dataset/8/7_36.odb,Step-1,Increment      1: Step Time =    1.000,"PART-1-1",           230,      -12.9405,      -24.6359,            0.,NA,NA,"",   35.3478E-03,  -20.1815E-03,  -29.0203E-03,   6.38227E-03
C:/temp/dataset/8/7_36.odb,Step-1,Increment      1: Step Time =    1.000,"PART-1-1",           231,       8.38159,      -7.75756,            0.,NA,NA,"",   341.759E-03,   135.376E-03,  -313.803E-03,   16.5022E-03
C:/temp/dataset/8/7_36.odb,Step-1,Increment      1: Step Time =    1.000,"PART-1-1",           232,       2.49333,  -53.6144E-03,            0.,NA,NA,"",   379.603E-03,   182.466E-03,  -332.873E-03,   2.14697E-03
C:/temp/dataset/8/7_36.odb,Step-1,Increment      1: Step Time =    1.000,"PART-1-1",           233,       10.3438,       10.8317,            0.,NA,NA,"",   807.589E-03,   495.734E-03,  -637.532E-03,   18.1539E-03
C:/temp/dataset/8/7_36.odb,Step-1,Increment      1: Step Time =    1.000,"PART-1-1",           234,       2.48676,       25.2065,            0.,NA,NA,"",       1.10385,   532.187E-03,  -967.089E-03,   19.7375E-03
C:/temp/dataset/8/7_36.odb,Step-1,Increment      1: Step Time =    1.000,"PART-1-1",           235,      -1.68066,       25.0633,            0.,NA,NA,"",   954.085E-03,   518.539E-03,  -800.872E-03,   22.1871E-03
C:/temp/dataset/8/7_36.odb,Step-1,Increment      1: Step Time =    1.000,"PART-1-1",           236,       8.59823,       25.2987,            0.,NA,NA,"",       1.06439,   599.124E-03,  -879.761E-03,   24.6925E-03
C:/temp/dataset/8/7_36.odb,Step-1,Increment      1: Step Time =    1.000,"PART-1-1",           237,      -9.10993,      -25.5879,            0.,NA,NA,"",   23.1958E-03,  -7.38454E-03,  -21.9889E-03,   6.87750E-03
C:/temp/dataset/8/7_36.odb,Step-1,Increment      1: Step Time =    1.000,"PART-1-1",           238,   13.3068E-03,  -28.0450E-03,            0.,NA,NA,"",   348.902E-03,   180.735E-03,  -298.442E-03,   792.456E-06
C:/temp/dataset/8/7_36.odb,Step-1,Increment      1: Step Time =    1.000,"PART-1-1",           239,      -6.37923,       25.7100,            0.,NA,NA,"",   763.758E-03,   547.485E-03,  -532.528E-03,   10.2536E-03
C:/temp/dataset/8/7_36.odb,Step-1,Increment      1: Step Time =    1.000,"PART-1-1",           240,      -10.0909,       17.4402,            0.,NA,NA,"",   420.650E-03,   266.194E-03,  -325.711E-03,   6.88605E-03
C:/temp/dataset/8/7_36.odb,Step-1,Increment      1: Step Time =    1.000,"PART-1-1",           241,      -10.1005,       12.5885,            0.,NA,NA,"",   355.763E-03,   199.360E-03,  -294.657E-03,   9.43329E-03
C:/temp/dataset/8/7_36.odb,Step-1,Increment      1: Step Time =    1.000,"PART-1-1",           242,      -9.86842,       5.52051,            0.,NA,NA,"",   301.968E-03,   174.172E-03,  -246.676E-03,   10.1527E-03
C:/temp/dataset/8/7_36.odb,Step-1,Increment      1: Step Time =    1.000,"PART-1-1",           243,      -11.6255,       2.21973,            0.,NA,NA,"",   258.293E-03,   155.670E-03,  -206.112E-03,   8.95402E-03
C:/temp/dataset/8/7_36.odb,Step-1,Increment      1: Step Time =    1.000,"PART-1-1",           244,      -10.6231,      -5.01162,            0.,NA,NA,"",   185.497E-03,   96.1388E-03,  -158.639E-03,   8.11199E-03
C:/temp/dataset/8/7_36.odb,Step-1,Increment      1: Step Time =    1.000,"PART-1-1",           245,      -9.74824,      -1.61604,            0.,NA,NA,"",   234.152E-03,   136.073E-03,  -190.555E-03,   8.57677E-03
C:/temp/dataset/8/7_36.odb,Step-1,Increment      1: Step Time =    1.000,"PART-1-1",           246,      -9.39443,      -6.20426,            0.,NA,NA,"",   182.491E-03,   86.9520E-03,  -160.445E-03,   8.02514E-03
C:/temp/dataset/8/7_36.odb,Step-1,Increment      1: Step Time =    1.000,"PART-1-1",           247,      -9.97662,      -10.1599,            0.,NA,NA,"",   134.664E-03,   43.9960E-03,  -127.274E-03,   8.22304E-03
C:/temp/dataset/8/7_36.odb,Step-1,Increment      1: Step Time =    1.000,"PART-1-1",           248,      -10.0249,      -15.1454,            0.,NA,NA,"",   90.5498E-03,   3.37487E-03,  -90.4869E-03,   8.03069E-03
C:/temp/dataset/8/7_36.odb,Step-1,Increment      1: Step Time =    1.000,"PART-1-1",           249,      -10.1027,      -20.6945,            0.,NA,NA,"",   55.8172E-03,  -16.2161E-03,  -53.4097E-03,   7.21970E-03
C:/temp/dataset/8/7_36.odb,Step-1,Increment      1: Step Time =    1.000,"PART-1-1",           250,      -4.80323,      -25.3191,            0.,NA,NA,"",   16.0480E-03,   2.07296E-03,  -15.9135E-03,   5.09561E-03
C:/temp/dataset/8/7_36.odb,Step-1,Increment      1: Step Time =    1.000,"PART-1-1",           251,      -2.51311,      -25.1881,            0.,NA,NA,"",   10.1442E-03,   2.69262E-03,  -9.78033E-03,   3.70053E-03
C:/temp/dataset/8/7_36.odb,Step-1,Increment      1: Step Time =    1.000,"PART-1-1",           252,       4.39742,      -24.6165,            0.,NA,NA,"",   29.7967E-03,  -1.83062E-03,  -29.7404E-03,   8.04992E-03
C:/temp/dataset/8/7_36.odb,Step-1,Increment      1: Step Time =    1.000,"PART-1-1",           253,       1.66428,      -24.9869,            0.,NA,NA,"",   11.8708E-03,  -2.79430E-03,  -11.5373E-03,   3.43843E-03
C:/temp/dataset/8/7_36.odb,Step-1,Increment      1: Step Time =    1.000,"PART-1-1",           254,      -10.0923,       15.0064,            0.,NA,NA,"",   384.245E-03,   225.204E-03,  -311.331E-03,   8.66002E-03
C:/temp/dataset/8/7_36.odb,Step-1,Increment      1: Step Time =    1.000,"PART-1-1",           255,       10.3928,      -12.7475,            0.,NA,NA,"",   279.178E-03,   115.220E-03,  -254.293E-03,   17.9129E-03
C:/temp/dataset/8/7_36.odb,Step-1,Increment      1: Step Time =    1.000,"PART-1-1",           256,      -10.0380,       8.31527,            0.,NA,NA,"",   319.899E-03,   178.221E-03,  -265.655E-03,   9.69264E-03
C:/temp/dataset/8/7_36.odb,Step-1,Increment      1: Step Time =    1.000,"PART-1-1",           257,      -2.46664,   5.11286E-03,            0.,NA,NA,"",   322.425E-03,   179.069E-03,  -268.127E-03,   1.38466E-03
C:/temp/dataset/8/7_36.odb,Step-1,Increment      1: Step Time =    1.000,"PART-1-1",           258,       4.76759,       25.2938,            0.,NA,NA,"",       1.11974,   557.542E-03,  -971.068E-03,   30.8382E-03
C:/temp/dataset/8/7_36.odb,Step-1,Increment      1: Step Time =    1.000,"PART-1-1",           259,      -9.80145,       22.1184,            0.,NA,NA,"",   539.922E-03,   404.413E-03,  -357.722E-03,   4.87030E-03
C:/temp/dataset/8/7_36.odb,Step-1,Increment      1: Step Time =    1.000,"PART-1-1",           260,      -10.0026,       19.8332,            0.,NA,NA,"",   471.971E-03,   327.180E-03,  -340.161E-03,   5.25966E-03
C:/temp/dataset/8/7_36.odb,Step-1,Increment      1: Step Time =    1.000,"PART-1-1",           261,      -4.38985,       24.8503,            0.,NA,NA,"",   822.318E-03,   516.781E-03,  -639.644E-03,   18.5576E-03
C:/temp/dataset/8/7_36.odb,Step-1,Increment      1: Step Time =    1.000,"PART-1-1",           262,      -8.41468,       26.1052,            0.,NA,NA,"",   711.272E-03,   562.753E-03,  -434.990E-03,   4.14896E-03
C:/temp/dataset/8/7_36.odb,Step-1,Increment      1: Step Time =    1.000,"PART-1-1",           263,      -10.8408,       3.63703,            0.,NA,NA,"",   277.975E-03,   165.213E-03,  -223.550E-03,   9.42884E-03
C:/temp/dataset/8/7_36.odb,Step-1,Increment      1: Step Time =    1.000,"PART-1-1",           264,      -10.0123,      -12.6074,            0.,NA,NA,"",   111.321E-03,   22.1673E-03,  -109.091E-03,   8.30489E-03
C:/temp/dataset/8/7_36.odb,Step-1,Increment      1: Step Time =    1.000,"PART-1-1",           265,      -10.0363,      -17.7670,            0.,NA,NA,"",   73.0966E-03,  -10.4277E-03,  -72.3490E-03,   7.29254E-03
C:/temp/dataset/8/7_36.odb,Step-1,Increment      1: Step Time =    1.000,"PART-1-1",           266,      -11.0603,      -23.9480,            0.,NA,NA,"",   36.3805E-03,  -16.1171E-03,  -32.6157E-03,   6.83594E-03
C:/temp/dataset/8/7_36.odb,Step-1,Increment      1: Step Time =    1.000,"PART-1-1",           267,       6.47854,      -25.3722,            0.,NA,NA,"",   38.5444E-03,   2.30623E-03,  -38.4754E-03,   11.3554E-03
C:/temp/dataset/8/7_36.odb,Step-1,Increment      1: Step Time =    1.000,"PART-1-1",           268,       8.63537,      -25.7845,            0.,NA,NA,"",   46.3803E-03,   10.6658E-03,  -45.1373E-03,   14.3187E-03
C:/temp/dataset/8/7_36.odb,Step-1,Increment      1: Step Time =    1.000,"PART-1-1",           269,       9.70324,      -17.2922,            0.,NA,NA,"",   194.158E-03,   80.7222E-03,  -176.583E-03,   16.8723E-03
C:/temp/dataset/8/7_36.odb,Step-1,Increment      1: Step Time =    1.000,"PART-1-1",           270,       9.32190,      -19.2968,            0.,NA,NA,"",   156.385E-03,   63.4857E-03,  -142.919E-03,   16.6894E-03
C:/temp/dataset/8/7_36.odb,Step-1,Increment      1: Step Time =    1.000,"PART-1-1",           271,       10.1737,       15.3696,            0.,NA,NA,"",   913.561E-03,   580.678E-03,  -705.271E-03,   17.0534E-03
C:/temp/dataset/8/7_36.odb,Step-1,Increment      1: Step Time =    1.000,"PART-1-1",           272,       11.4582,       22.6444,            0.,NA,NA,"",       1.00834,   621.641E-03,  -793.923E-03,   12.2871E-03
C:/temp/dataset/8/7_36.odb,Step-1,Increment      1: Step Time =    1.000,"PART-1-1",           273,       10.7208,      -10.6686,            0.,NA,NA,"",   319.100E-03,   131.717E-03,  -290.647E-03,   17.9813E-03
C:/temp/dataset/8/7_36.odb,Step-1,Increment      1: Step Time =    1.000,"PART-1-1",           274,       12.8969,       24.9220,            0.,NA,NA,"",       1.00060,   614.402E-03,  -789.754E-03,   4.72287E-03
C:/temp/dataset/8/7_36.odb,Step-1,Increment      1: Step Time =    1.000,"PART-1-1",           275,       10.1448,       20.8629,            0.,NA,NA,"",   996.457E-03,   614.151E-03,  -784.694E-03,   17.3917E-03
C:/temp/dataset/8/7_36.odb,Step-1,Increment      1: Step Time =    1.000,"PART-1-1",           276,       9.65714,      -6.54367,            0.,NA,NA,"",   377.915E-03,   154.248E-03,  -345.004E-03,   16.9485E-03
C:/temp/dataset/8/7_36.odb,Step-1,Increment      1: Step Time =    1.000,"PART-1-1",           277,       9.83992,      -3.38396,            0.,NA,NA,"",   436.889E-03,   184.397E-03,  -396.068E-03,   17.6679E-03
C:/temp/dataset/8/7_36.odb,Step-1,Increment      1: Step Time =    1.000,"PART-1-1",           278,       8.07567,       3.47086,            0.,NA,NA,"",   555.582E-03,   284.688E-03,  -477.099E-03,   19.5593E-03
C:/temp/dataset/8/7_36.odb,Step-1,Increment      1: Step Time =    1.000,"PART-1-1",           279,       7.59381,   482.257E-03,            0.,NA,NA,"",   474.039E-03,   217.795E-03,  -421.045E-03,   16.1848E-03
C:/temp/dataset/8/7_36.odb,Step-1,Increment      1: Step Time =    1.000,"PART-1-1",           280,       4.76722,  -235.440E-03,            0.,NA,NA,"",   411.070E-03,   186.429E-03,  -366.365E-03,   7.73719E-03
C:/temp/dataset/8/7_36.odb,Step-1,Increment      1: Step Time =    1.000,"PART-1-1",           281,      -4.77136,   213.016E-03,            0.,NA,NA,"",   301.755E-03,   175.922E-03,  -245.168E-03,   4.61803E-03
C:/temp/dataset/8/7_36.odb,Step-1,Increment      1: Step Time =    1.000,"PART-1-1",           282,      -7.11180,      -22.9221,            0.,NA,NA,"",   37.4837E-03,  -4.32965E-03,  -37.2328E-03,   8.65828E-03
C:/temp/dataset/8/7_36.odb,Step-1,Increment      1: Step Time =    1.000,"PART-1-1",           283,      -7.18782,       23.8644,            0.,NA,NA,"",   676.512E-03,   477.040E-03,  -479.688E-03,   11.4458E-03
C:/temp/dataset/8/7_36.odb,Step-1,Increment      1: Step Time =    1.000,"PART-1-1",           284,      -8.39641,      -3.64363,            0.,NA,NA,"",   222.077E-03,   120.071E-03,  -186.818E-03,   8.30140E-03
C:/temp/dataset/8/7_36.odb,Step-1,Increment      1: Step Time =    1.000,"PART-1-1",           285,      -5.55453,       23.5444,            0.,NA,NA,"",   734.777E-03,   472.332E-03,  -562.849E-03,   17.6258E-03
C:/temp/dataset/8/7_36.odb,Step-1,Increment      1: Step Time =    1.000,"PART-1-1",           286,      -8.96964,       2.09003,            0.,NA,NA,"",   281.989E-03,   168.779E-03,  -225.902E-03,   9.73389E-03
C:/temp/dataset/8/7_36.odb,Step-1,Increment      1: Step Time =    1.000,"PART-1-1",           287,      -8.56063,       4.18956,            0.,NA,NA,"",   304.895E-03,   178.898E-03,  -246.894E-03,   10.5622E-03
C:/temp/dataset/8/7_36.odb,Step-1,Increment      1: Step Time =    1.000,"PART-1-1",           288,      -7.73446,  -335.973E-03,            0.,NA,NA,"",   267.992E-03,   157.869E-03,  -216.557E-03,   8.33720E-03
C:/temp/dataset/8/7_36.odb,Step-1,Increment      1: Step Time =    1.000,"PART-1-1",           289,      -9.21295,      -23.2880,            0.,NA,NA,"",   38.5856E-03,  -11.4144E-03,  -36.8587E-03,   7.56154E-03
C:/temp/dataset/8/7_36.odb,Step-1,Increment      1: Step Time =    1.000,"PART-1-1",           290,       7.07458,       22.9394,            0.,NA,NA,"",       1.04122,   572.312E-03,  -869.829E-03,   34.5074E-03
C:/temp/dataset/8/7_36.odb,Step-1,Increment      1: Step Time =    1.000,"PART-1-1",           291,       5.55979,      -23.2424,            0.,NA,NA,"",   52.3714E-03,   6.71702E-03,  -51.9389E-03,   11.8484E-03
C:/temp/dataset/8/7_36.odb,Step-1,Increment      1: Step Time =    1.000,"PART-1-1",           292,       8.69880,      -1.44983,            0.,NA,NA,"",   455.263E-03,   197.879E-03,  -410.010E-03,   16.9564E-03
C:/temp/dataset/8/7_36.odb,Step-1,Increment      1: Step Time =    1.000,"PART-1-1",           293,       10.8983,      -19.3920,            0.,NA,NA,"",   170.894E-03,   73.9569E-03,  -154.062E-03,   17.0687E-03
C:/temp/dataset/8/7_36.odb,Step-1,Increment      1: Step Time =    1.000,"PART-1-1",           294,       11.5936,       9.64460,            0.,NA,NA,"",   796.846E-03,   476.374E-03,  -638.774E-03,   16.8306E-03
C:/temp/dataset/8/7_36.odb,Step-1,Increment      1: Step Time =    1.000,"PART-1-1",           295,       7.27669,      -23.4490,            0.,NA,NA,"",   68.3557E-03,   15.7363E-03,  -66.5197E-03,   14.7327E-03
C:/temp/dataset/8/7_36.odb,Step-1,Increment      1: Step Time =    1.000,"PART-1-1",           296,       9.33849,      -21.3324,            0.,NA,NA,"",   122.241E-03,   46.8331E-03,  -112.914E-03,   16.5711E-03
C:/temp/dataset/8/7_36.odb,Step-1,Increment      1: Step Time =    1.000,"PART-1-1",           297,       6.40414,  -671.178E-03,            0.,NA,NA,"",   430.946E-03,   189.895E-03,  -386.852E-03,   12.9101E-03
C:/temp/dataset/8/7_36.odb,Step-1,Increment      1: Step Time =    1.000,"PART-1-1",           298,       9.14051,       23.4286,            0.,NA,NA,"",       1.03298,   602.770E-03,  -838.877E-03,   22.3022E-03
C:/temp/dataset/8/7_36.odb,Step-1,Increment      1: Step Time =    1.000,"PART-1-1",           299,       8.65907,       5.77812,            0.,NA,NA,"",   633.275E-03,   351.890E-03,  -526.508E-03,   19.0943E-03
C:/temp/dataset/8/7_36.odb,Step-1,Increment      1: Step Time =    1.000,"PART-1-1",           300,       8.97612,       7.18244,            0.,NA,NA,"",   680.514E-03,   392.874E-03,  -555.652E-03,   18.8864E-03
C:/temp/dataset/8/7_36.odb,Step-1,Increment      1: Step Time =    1.000,"PART-1-1",           301,       6.88173,      -2.42849,            0.,NA,NA,"",   408.884E-03,   170.354E-03,  -371.706E-03,   14.8748E-03
C:/temp/dataset/8/7_36.odb,Step-1,Increment      1: Step Time =    1.000,"PART-1-1",           302,      -6.42964,   749.171E-03,            0.,NA,NA,"",   291.884E-03,   173.936E-03,  -234.399E-03,   7.44228E-03
C:/temp/dataset/8/7_36.odb,Step-1,Increment      1: Step Time =    1.000,"PART-1-1",           303,       5.11581,      -21.8357,            0.,NA,NA,"",   61.1243E-03,   13.0168E-03,  -59.7222E-03,   13.9357E-03
C:/temp/dataset/8/7_36.odb,Step-1,Increment      1: Step Time =    1.000,"PART-1-1",           304,      -5.14463,       22.0341,            0.,NA,NA,"",   708.704E-03,   422.009E-03,  -569.358E-03,   24.0281E-03
C:/temp/dataset/8/7_36.odb,Step-1,Increment      1: Step Time =    1.000,"PART-1-1",           305,      -6.99627,       4.73063,            0.,NA,NA,"",   323.798E-03,   189.309E-03,  -262.693E-03,   11.7757E-03
C:/temp/dataset/8/7_36.odb,Step-1,Increment      1: Step Time =    1.000,"PART-1-1",           306,      -9.29341,       24.2181,            0.,NA,NA,"",   622.277E-03,   486.064E-03,  -388.549E-03,   4.69837E-03
C:/temp/dataset/8/7_36.odb,Step-1,Increment      1: Step Time =    1.000,"PART-1-1",           307,       6.91219,       25.3650,            0.,NA,NA,"",       1.09639,   584.418E-03,  -927.650E-03,   31.8789E-03
C:/temp/dataset/8/7_36.odb,Step-1,Increment      1: Step Time =    1.000,"PART-1-1",           308,      -7.05007,      -25.4591,            0.,NA,NA,"",   20.7745E-03,  -2.22791E-03,  -20.6547E-03,   6.42742E-03
C:/temp/dataset/8/7_36.odb,Step-1,Increment      1: Step Time =    1.000,"PART-1-1",           309,   220.127E-03,       25.1193,            0.,NA,NA,"",       1.03683,   518.909E-03,  -897.636E-03,   18.6798E-03
C:/temp/dataset/8/7_36.odb,Step-1,Increment      1: Step Time =    1.000,"PART-1-1",           310,      -10.0664,       10.2548,            0.,NA,NA,"",   334.569E-03,   184.701E-03,  -278.966E-03,   9.54828E-03
C:/temp/dataset/8/7_36.odb,Step-1,Increment      1: Step Time =    1.000,"PART-1-1",           311,  -242.668E-03,      -25.0731,            0.,NA,NA,"",   7.42286E-03,   126.671E-06,  -7.42178E-03,   2.66785E-03
C:/temp/dataset/8/7_36.odb,Step-1,Increment      1: Step Time =    1.000,"PART-1-1",           312,       10.1301,       17.8656,            0.,NA,NA,"",   957.735E-03,   606.394E-03,  -741.311E-03,   16.0826E-03
C:/temp/dataset/8/7_36.odb,Step-1,Increment      1: Step Time =    1.000,"PART-1-1",           313,       10.5061,      -8.54167,            0.,NA,NA,"",   353.850E-03,   145.143E-03,  -322.713E-03,   17.7772E-03
C:/temp/dataset/8/7_36.odb,Step-1,Increment      1: Step Time =    1.000,"PART-1-1",           314,       10.4872,  -400.528E-03,            0.,NA,NA,"",   509.427E-03,   229.908E-03,  -454.597E-03,   18.7349E-03
C:/temp/dataset/8/7_36.odb,Step-1,Increment      1: Step Time =    1.000,"PART-1-1",           315,       10.8929,       24.4859,            0.,NA,NA,"",       1.02283,   612.916E-03,  -818.855E-03,   12.9413E-03
C:/temp/dataset/8/7_36.odb,Step-1,Increment      1: Step Time =    1.000,"PART-1-1",           316,      -9.77896,      -7.87942,            0.,NA,NA,"",   160.215E-03,   67.5017E-03,  -145.300E-03,   7.94952E-03
C:/temp/dataset/8/7_36.odb,Step-1,Increment      1: Step Time =    1.000,"PART-1-1",           317,      -10.1061,       26.5279,            0.,NA,NA,"",   684.197E-03,   580.100E-03,  -362.780E-03,   1.75670E-03
C:/temp/dataset/8/7_36.odb,Step-1,Increment      1: Step Time =    1.000,"PART-1-1",           318,       10.2904,      -26.3642,            0.,NA,NA,"",   47.1348E-03,   16.6854E-03,  -44.0827E-03,   16.1314E-03
C:/temp/dataset/8/7_36.odb,Step-1,Increment      1: Step Time =    1.000,"PART-1-1",           319,       8.71706,      -9.20658,            0.,NA,NA,"",   321.016E-03,   126.591E-03,  -295.002E-03,   17.0216E-03
C:/temp/dataset/8/7_36.odb,Step-1,Increment      1: Step Time =    1.000,"PART-1-1",           320,      -10.7949,   625.452E-03,            0.,NA,NA,"",   249.967E-03,   150.095E-03,  -199.888E-03,   8.90521E-03
C:/temp/dataset/8/7_36.odb,Step-1,Increment      1: Step Time =    1.000,"PART-1-1",           321,       9.11771,      -10.6516,            0.,NA,NA,"",   300.853E-03,   119.202E-03,  -276.231E-03,   17.4938E-03
C:/temp/dataset/8/7_36.odb,Step-1,Increment      1: Step Time =    1.000,"PART-1-1",           322,       10.0459,      -15.0301,            0.,NA,NA,"",   236.050E-03,   97.9163E-03,  -214.784E-03,   17.6809E-03
C:/temp/dataset/8/7_36.odb,Step-1,Increment      1: Step Time =    1.000,"PART-1-1",           323,       10.1838,       13.4361,            0.,NA,NA,"",   870.874E-03,   549.067E-03,  -675.978E-03,   17.9776E-03
C:/temp/dataset/8/7_36.odb,Step-1,Increment      1: Step Time =    1.000,"PART-1-1",           324,       9.44411,       8.99394,            0.,NA,NA,"",   741.469E-03,   444.007E-03,  -593.830E-03,   19.0496E-03
C:/temp/dataset/8/7_36.odb,Step-1,Increment      1: Step Time =    1.000,"PART-1-1",           325,      -11.4742,      -22.3598,            0.,NA,NA,"",   46.2956E-03,  -19.4892E-03,  -41.9935E-03,   6.65154E-03
C:/temp/dataset/8/7_36.odb,Step-1,Increment      1: Step Time =    1.000,"PART-1-1",           326,      -10.7157,      -25.5035,            0.,NA,NA,"",   26.0779E-03,  -12.0230E-03,  -23.1410E-03,   6.79506E-03
C:/temp/dataset/8/7_36.odb,Step-1,Increment      1: Step Time =    1.000,"PART-1-1",           327,       11.3755,      -22.3888,            0.,NA,NA,"",   123.208E-03,   53.6415E-03,  -110.918E-03,   17.6457E-03
C:/temp/dataset/8/7_36.odb,Step-1,Increment      1: Step Time =    1.000,"PART-1-1",           328,       12.6965,      -9.12334,            0.,NA,NA,"",   370.397E-03,   158.782E-03,  -334.638E-03,   18.9184E-03
C:/temp/dataset/8/7_36.odb,Step-1,Increment      1: Step Time =    1.000,"PART-1-1",           329,       11.5519,      -8.21002,            0.,NA,NA,"",   372.912E-03,   156.001E-03,  -338.714E-03,   18.4160E-03
C:/temp/dataset/8/7_36.odb,Step-1,Increment      1: Step Time =    1.000,"PART-1-1",           330,       10.6134,      -9.60511,            0.,NA,NA,"",   336.487E-03,   138.280E-03,  -306.760E-03,   17.8784E-03
C:/temp/dataset/8/7_36.odb,Step-1,Increment      1: Step Time =    1.000,"PART-1-1",           331,       11.7580,      -10.5184,            0.,NA,NA,"",   333.935E-03,   141.133E-03,  -302.645E-03,   18.3573E-03
C:/temp/dataset/8/7_36.odb,Step-1,Increment      1: Step Time =    1.000,"PART-1-1",           332,       12.2813,      -6.47713,            0.,NA,NA,"",   414.645E-03,   175.733E-03,  -375.564E-03,   19.1052E-03
C:/temp/dataset/8/7_36.odb,Step-1,Increment      1: Step Time =    1.000,"PART-1-1",           333,       10.8110,      -5.80977,            0.,NA,NA,"",   406.619E-03,   169.243E-03,  -369.725E-03,   18.0300E-03
C:/temp/dataset/8/7_36.odb,Step-1,Increment      1: Step Time =    1.000,"PART-1-1",           334,       10.0816,      -7.54267,            0.,NA,NA,"",   366.080E-03,   149.510E-03,  -334.157E-03,   17.3873E-03
C:/temp/dataset/8/7_36.odb,Step-1,Increment      1: Step Time =    1.000,"PART-1-1",           335,       11.2990,      -15.1119,            0.,NA,NA,"",   248.421E-03,   107.162E-03,  -224.119E-03,   17.7729E-03
C:/temp/dataset/8/7_36.odb,Step-1,Increment      1: Step Time =    1.000,"PART-1-1",           336,       9.87457,      -16.1611,            0.,NA,NA,"",   214.961E-03,   89.2810E-03,  -195.543E-03,   17.4290E-03
C:/temp/dataset/8/7_36.odb,Step-1,Increment      1: Step Time =    1.000,"PART-1-1",           337,       10.9991,      -17.5898,            0.,NA,NA,"",   202.751E-03,   88.1047E-03,  -182.607E-03,   17.2335E-03
C:/temp/dataset/8/7_36.odb,Step-1,Increment      1: Step Time =    1.000,"PART-1-1",           338,       12.4235,      -16.5405,            0.,NA,NA,"",   235.893E-03,   106.390E-03,  -210.539E-03,   17.7138E-03
C:/temp/dataset/8/7_36.odb,Step-1,Increment      1: Step Time =    1.000,"PART-1-1",           339,       13.8616,      -12.6502,            0.,NA,NA,"",   319.485E-03,   144.245E-03,  -285.069E-03,   18.5006E-03
C:/temp/dataset/8/7_36.odb,Step-1,Increment      1: Step Time =    1.000,"PART-1-1",           340,       12.6376,      -13.9658,            0.,NA,NA,"",   282.948E-03,   125.397E-03,  -253.644E-03,   18.1135E-03
C:/temp/dataset/8/7_36.odb,Step-1,Increment      1: Step Time =    1.000,"PART-1-1",           341,       13.7760,      -15.1344,            0.,NA,NA,"",   274.708E-03,   126.829E-03,  -243.678E-03,   17.9493E-03
C:/temp/dataset/8/7_36.odb,Step-1,Increment      1: Step Time =    1.000,"PART-1-1",           342,           15.,      -13.8188,            0.,NA,NA,"",   310.501E-03,   145.819E-03,  -274.131E-03,   18.3291E-03
C:/temp/dataset/8/7_36.odb,Step-1,Increment      1: Step Time =    1.000,"PART-1-1",           343,       10.1233,      -29.0150,            0.,NA,NA,"",   10.5544E-03,   2.41367E-03,  -10.2747E-03,   13.1207E-03
C:/temp/dataset/8/7_36.odb,Step-1,Increment      1: Step Time =    1.000,"PART-1-1",           344,         11.25,          -30.,            0.,NA,NA,"",            0.,   2.39313E-39,  -26.3319E-39,   13.5477E-03
C:/temp/dataset/8/7_36.odb,Step-1,Increment      1: Step Time =    1.000,"PART-1-1",           345,       12.5276,      -28.8602,            0.,NA,NA,"",   17.2004E-03,   8.92578E-03,  -14.7033E-03,   16.5818E-03
C:/temp/dataset/8/7_36.odb,Step-1,Increment      1: Step Time =    1.000,"PART-1-1",           346,       11.4009,      -27.8752,            0.,NA,NA,"",   29.1806E-03,   12.8927E-03,  -26.1780E-03,   16.5979E-03
C:/temp/dataset/8/7_36.odb,Step-1,Increment      1: Step Time =    1.000,"PART-1-1",           347,  -7.48819E-03,      -28.7489,            0.,NA,NA,"",   3.32692E-03,  -1.58334E-03,  -2.92600E-03,   3.22340E-03
C:/temp/dataset/8/7_36.odb,Step-1,Increment      1: Step Time =    1.000,"PART-1-1",           348,          1.25,          -30.,            0.,NA,NA,"",            0.,  -1.69651E-39,  -7.87095E-39,   4.33535E-03
C:/temp/dataset/8/7_36.odb,Step-1,Increment      1: Step Time =    1.000,"PART-1-1",           349,       2.65668,      -28.4883,            0.,NA,NA,"",   6.90999E-03,  -4.19906E-03,  -5.48778E-03,   5.09906E-03
C:/temp/dataset/8/7_36.odb,Step-1,Increment      1: Step Time =    1.000,"PART-1-1",           350,       1.39919,      -27.2372,            0.,NA,NA,"",   8.01778E-03,  -4.08981E-03,  -6.89625E-03,   3.91840E-03
C:/temp/dataset/8/7_36.odb,Step-1,Increment      1: Step Time =    1.000,"PART-1-1",           351,      -13.5917,      -27.3235,            0.,NA,NA,"",   20.1540E-03,  -13.6776E-03,  -14.8022E-03,   6.48615E-03
C:/temp/dataset/8/7_36.odb,Step-1,Increment      1: Step Time =    1.000,"PART-1-1",           352,      -12.5620,      -25.8915,            0.,NA,NA,"",   26.9703E-03,  -16.0029E-03,  -21.7095E-03,   6.48949E-03
C:/temp/dataset/8/7_36.odb,Step-1,Increment      1: Step Time =    1.000,"PART-1-1",           353,      -13.9703,      -24.8180,            0.,NA,NA,"",   37.0044E-03,  -22.5672E-03,  -29.3266E-03,   5.60881E-03
C:/temp/dataset/8/7_36.odb,Step-1,Increment      1: Step Time =    1.000,"PART-1-1",           354,          -15.,        -26.25,            0.,NA,NA,"",   32.7182E-03,  -21.5160E-03,  -24.6483E-03,   5.59961E-03
C:/temp/dataset/8/7_36.odb,Step-1,Increment      1: Step Time =    1.000,"PART-1-1",           355,      -13.7565,      -15.0496,            0.,NA,NA,"",   73.5860E-03,  -6.57564E-03,  -73.2916E-03,   5.15143E-03
C:/temp/dataset/8/7_36.odb,Step-1,Increment      1: Step Time =    1.000,"PART-1-1",           356,          -15.,        -16.25,            0.,NA,NA,"",   63.9523E-03,  -15.6559E-03,  -62.0064E-03,   3.87474E-03
C:/temp/dataset/8/7_36.odb,Step-1,Increment      1: Step Time =    1.000,"PART-1-1",           357,      -13.7726,      -17.5632,            0.,NA,NA,"",   64.8329E-03,  -18.9495E-03,  -62.0017E-03,   4.73154E-03
C:/temp/dataset/8/7_36.odb,Step-1,Increment      1: Step Time =    1.000,"PART-1-1",           358,      -12.5291,      -16.3628,            0.,NA,NA,"",   73.2893E-03,  -10.8887E-03,  -72.4759E-03,   5.97608E-03
C:/temp/dataset/8/7_36.odb,Step-1,Increment      1: Step Time =    1.000,"PART-1-1",           359,      -13.7981,       15.0016,            0.,NA,NA,"",   325.122E-03,   222.513E-03,  -237.049E-03,   2.48619E-03
C:/temp/dataset/8/7_36.odb,Step-1,Increment      1: Step Time =    1.000,"PART-1-1",           360,          -15.,         13.75,            0.,NA,NA,"",   303.182E-03,   206.935E-03,  -221.579E-03,   3.41012E-03
C:/temp/dataset/8/7_36.odb,Step-1,Increment      1: Step Time =    1.000,"PART-1-1",           361,      -13.7882,       12.5186,            0.,NA,NA,"",   306.508E-03,   192.713E-03,  -238.346E-03,   2.20987E-03
C:/temp/dataset/8/7_36.odb,Step-1,Increment      1: Step Time =    1.000,"PART-1-1",           362,      -12.5863,       13.7702,            0.,NA,NA,"",   330.022E-03,   206.057E-03,  -257.788E-03,   4.25545E-03
C:/temp/dataset/8/7_36.odb,Step-1,Increment      1: Step Time =    1.000,"PART-1-1",           363,         -1.25,           -5.,            0.,NA,NA,"",   305.090E-03,   118.820E-03,  -281.001E-03,   1.65042E-03
C:/temp/dataset/8/7_36.odb,Step-1,Increment      1: Step Time =    1.000,"PART-1-1",           364,  -13.9379E-03,      -3.76263,            0.,NA,NA,"",   327.402E-03,   135.945E-03,  -297.844E-03,   1.23848E-03
C:/temp/dataset/8/7_36.odb,Step-1,Increment      1: Step Time =    1.000,"PART-1-1",           365,      -1.32837,      -2.50582,            0.,NA,NA,"",   318.761E-03,   150.432E-03,  -281.032E-03,   723.519E-06
C:/temp/dataset/8/7_36.odb,Step-1,Increment      1: Step Time =    1.000,"PART-1-1",           366,      -2.56444,      -3.74319,            0.,NA,NA,"",   296.024E-03,   134.250E-03,  -263.832E-03,   1.09891E-03
C:/temp/dataset/8/7_36.odb,Step-1,Increment      1: Step Time =    1.000,"PART-1-1",           367,       1.21115,      -2.54764,            0.,NA,NA,"",   348.010E-03,   150.599E-03,  -313.736E-03,   872.333E-06
C:/temp/dataset/8/7_36.odb,Step-1,Increment      1: Step Time =    1.000,"PART-1-1",           368,          1.25,           -5.,            0.,NA,NA,"",   336.115E-03,   123.563E-03,  -312.579E-03,   2.55322E-03
C:/temp/dataset/8/7_36.odb,Step-1,Increment      1: Step Time =    1.000,"PART-1-1",           369,       2.47509,      -3.78501,            0.,NA,NA,"",   355.316E-03,   138.524E-03,  -327.201E-03,   2.29606E-03
C:/temp/dataset/8/7_36.odb,Step-1,Increment      1: Step Time =    1.000,"PART-1-1",           370,      -2.43569,       1.26731,            0.,NA,NA,"",   331.834E-03,   192.909E-03,  -269.999E-03,   2.55123E-03
C:/temp/dataset/8/7_36.odb,Step-1,Increment      1: Step Time =    1.000,"PART-1-1",           371,      -1.22667,  -11.4661E-03,            0.,NA,NA,"",   335.312E-03,   180.150E-03,  -282.808E-03,   879.744E-06
C:/temp/dataset/8/7_36.odb,Step-1,Increment      1: Step Time =    1.000,"PART-1-1",           372,   33.9799E-03,       1.22985,            0.,NA,NA,"",   358.217E-03,   196.994E-03,  -299.187E-03,   2.01350E-03
C:/temp/dataset/8/7_36.odb,Step-1,Increment      1: Step Time =    1.000,"PART-1-1",           373,      -1.17505,       2.50863,            0.,NA,NA,"",   354.468E-03,   210.065E-03,  -285.518E-03,   3.80212E-03
C:/temp/dataset/8/7_36.odb,Step-1,Increment      1: Step Time =    1.000,"PART-1-1",           374,       4.76976,      -1.42993,            0.,NA,NA,"",   396.397E-03,   169.869E-03,  -358.155E-03,   7.76934E-03
C:/temp/dataset/8/7_36.odb,Step-1,Increment      1: Step Time =    1.000,"PART-1-1",           375,       3.63028,  -144.527E-03,            0.,NA,NA,"",   394.905E-03,   183.689E-03,  -349.584E-03,   4.93550E-03
C:/temp/dataset/8/7_36.odb,Step-1,Increment      1: Step Time =    1.000,"PART-1-1",           376,       2.47175,      -1.31182,            0.,NA,NA,"",   369.694E-03,   165.722E-03,  -330.469E-03,   1.37314E-03
C:/temp/dataset/8/7_36.odb,Step-1,Increment      1: Step Time =    1.000,"PART-1-1",           377,       3.61124,      -2.59722,            0.,NA,NA,"",   371.736E-03,   151.676E-03,  -339.385E-03,   3.68726E-03
C:/temp/dataset/8/7_36.odb,Step-1,Increment      1: Step Time =    1.000,"PART-1-1",           378,       11.8901,      -2.20917,            0.,NA,NA,"",   494.746E-03,   216.433E-03,  -444.894E-03,   19.6372E-03
C:/temp/dataset/8/7_36.odb,Step-1,Increment      1: Step Time =    1.000,"PART-1-1",           379,       10.4501,      -2.71998,            0.,NA,NA,"",   459.660E-03,   197.110E-03,  -415.253E-03,   18.2820E-03
C:/temp/dataset/8/7_36.odb,Step-1,Increment      1: Step Time =    1.000,"PART-1-1",           380,       10.9024,      -4.22992,            0.,NA,NA,"",   437.434E-03,   184.514E-03,  -396.615E-03,   18.3846E-03
C:/temp/dataset/8/7_36.odb,Step-1,Increment      1: Step Time =    1.000,"PART-1-1",           381,       12.3424,      -3.71911,            0.,NA,NA,"",   470.273E-03,   202.470E-03,  -424.456E-03,   19.7388E-03
C:/temp/dataset/8/7_36.odb,Step-1,Increment      1: Step Time =    1.000,"PART-1-1",           382,       13.7991,   56.7775E-03,            0.,NA,NA,"",   583.086E-03,   269.007E-03,  -517.324E-03,   21.8298E-03
C:/temp/dataset/8/7_36.odb,Step-1,Increment      1: Step Time =    1.000,"PART-1-1",           383,           15.,       1.23750,            0.,NA,NA,"",   639.449E-03,   302.687E-03,  -563.272E-03,   22.7990E-03
C:/temp/dataset/8/7_36.odb,Step-1,Increment      1: Step Time =    1.000,"PART-1-1",           384,       13.5044,       2.67232,            0.,NA,NA,"",   645.455E-03,   317.729E-03,  -561.837E-03,   20.6478E-03
C:/temp/dataset/8/7_36.odb,Step-1,Increment      1: Step Time =    1.000,"PART-1-1",           385,       12.3035,       1.49160,            0.,NA,NA,"",   589.704E-03,   281.627E-03,  -518.109E-03,   19.8654E-03
C:/temp/dataset/8/7_36.odb,Step-1,Increment      1: Step Time =    1.000,"PART-1-1",           386,       9.21011,       8.08819,            0.,NA,NA,"",   711.208E-03,   418.781E-03,  -574.839E-03,   19.0167E-03
C:/temp/dataset/8/7_36.odb,Step-1,Increment      1: Step Time =    1.000,"PART-1-1",           387,       8.41229,       9.37574,            0.,NA,NA,"",   733.497E-03,   445.106E-03,  -583.009E-03,   20.1319E-03
C:/temp/dataset/8/7_36.odb,Step-1,Increment      1: Step Time =    1.000,"PART-1-1",           388,       7.22358,       8.63283,            0.,NA,NA,"",   687.823E-03,   416.239E-03,  -547.582E-03,   20.5208E-03
C:/temp/dataset/8/7_36.odb,Step-1,Increment      1: Step Time =    1.000,"PART-1-1",           389,       8.02141,       7.34528,            0.,NA,NA,"",   666.268E-03,   389.454E-03,  -540.592E-03,   19.3440E-03
C:/temp/dataset/8/7_36.odb,Step-1,Increment      1: Step Time =    1.000,"PART-1-1",           390,       12.4231,       13.7517,            0.,NA,NA,"",   905.147E-03,   568.994E-03,  -703.944E-03,   12.9515E-03
C:/temp/dataset/8/7_36.odb,Step-1,Increment      1: Step Time =    1.000,"PART-1-1",           391,       13.6407,       12.4035,            0.,NA,NA,"",   895.265E-03,   550.222E-03,  -706.226E-03,   11.2232E-03
C:/temp/dataset/8/7_36.odb,Step-1,Increment      1: Step Time =    1.000,"PART-1-1",           392,           15.,       13.6688,            0.,NA,NA,"",   938.275E-03,   578.445E-03,  -738.757E-03,   6.96689E-03
C:/temp/dataset/8/7_36.odb,Step-1,Increment      1: Step Time =    1.000,"PART-1-1",           393,       13.7824,       15.0169,            0.,NA,NA,"",   942.756E-03,   594.923E-03,  -731.338E-03,   8.57722E-03
C:/temp/dataset/8/7_36.odb,Step-1,Increment      1: Step Time =    1.000,"PART-1-1",           394,       7.56520,       19.0322,            0.,NA,NA,"",   967.330E-03,   588.260E-03,  -767.904E-03,   22.5630E-03
C:/temp/dataset/8/7_36.odb,Step-1,Increment      1: Step Time =    1.000,"PART-1-1",           395,       8.88910,       17.7874,            0.,NA,NA,"",   950.269E-03,   596.345E-03,  -739.854E-03,   19.8051E-03
C:/temp/dataset/8/7_36.odb,Step-1,Increment      1: Step Time =    1.000,"PART-1-1",           396,       10.1374,       19.3643,            0.,NA,NA,"",   978.105E-03,   612.492E-03,  -762.589E-03,   16.3765E-03
C:/temp/dataset/8/7_36.odb,Step-1,Increment      1: Step Time =    1.000,"PART-1-1",           397,       8.81352,       20.6091,            0.,NA,NA,"",   993.157E-03,   600.481E-03,  -791.064E-03,   22.0151E-03
C:/temp/dataset/8/7_36.odb,Step-1,Increment      1: Step Time =    1.000,"PART-1-1",           398,       4.93385,       28.8453,            0.,NA,NA,"",       1.20015,   581.258E-03,      -1.05000,   32.1276E-03
C:/temp/dataset/8/7_36.odb,Step-1,Increment      1: Step Time =    1.000,"PART-1-1",           399,          3.75,           30.,            0.,NA,NA,"",       1.22910,   597.774E-03,      -1.07394,   37.8249E-03
C:/temp/dataset/8/7_36.odb,Step-1,Increment      1: Step Time =    1.000,"PART-1-1",           400,       2.48155,       28.8240,            0.,NA,NA,"",       1.20039,   600.606E-03,      -1.03933,   32.2541E-03
C:/temp/dataset/8/7_36.odb,Step-1,Increment      1: Step Time =    1.000,"PART-1-1",           401,       3.66541,       27.6693,            0.,NA,NA,"",       1.18176,   577.076E-03,      -1.03129,   28.4592E-03
C:/temp/dataset/8/7_36.odb,Step-1,Increment      1: Step Time =    1.000,"PART-1-1",           402,   132.783E-03,       23.8710,            0.,NA,NA,"",       1.01273,   494.224E-03,  -883.948E-03,   16.2594E-03
C:/temp/dataset/8/7_36.odb,Step-1,Increment      1: Step Time =    1.000,"PART-1-1",           403,       1.26611,       22.6290,            0.,NA,NA,"",       1.02923,   479.374E-03,  -910.779E-03,   12.3764E-03
C:/temp/dataset/8/7_36.odb,Step-1,Increment      1: Step Time =    1.000,"PART-1-1",           404,       2.48677,       23.9209,            0.,NA,NA,"",       1.07666,   511.470E-03,  -947.416E-03,   16.3096E-03
C:/temp/dataset/8/7_36.odb,Step-1,Increment      1: Step Time =    1.000,"PART-1-1",           405,       1.35344,       25.1629,            0.,NA,NA,"",       1.07645,   523.797E-03,  -940.418E-03,   16.5878E-03
C:/temp/dataset/8/7_36.odb,Step-1,Increment      1: Step Time =    1.000,"PART-1-1",           406,      -5.93264,       26.7394,            0.,NA,NA,"",   810.432E-03,   586.578E-03,  -559.219E-03,   8.73415E-03
C:/temp/dataset/8/7_36.odb,Step-1,Increment      1: Step Time =    1.000,"PART-1-1",           407,      -5.38454,       25.2802,            0.,NA,NA,"",   789.861E-03,   531.510E-03,  -584.275E-03,   14.1953E-03
C:/temp/dataset/8/7_36.odb,Step-1,Increment      1: Step Time =    1.000,"PART-1-1",           408,      -3.59728,       25.9693,            0.,NA,NA,"",   882.873E-03,   551.039E-03,  -689.798E-03,   17.8437E-03
C:/temp/dataset/8/7_36.odb,Step-1,Increment      1: Step Time =    1.000,"PART-1-1",           409,      -4.14538,       27.4285,            0.,NA,NA,"",   895.628E-03,   607.085E-03,  -658.481E-03,   12.2727E-03
C:/temp/dataset/8/7_36.odb,Step-1,Increment      1: Step Time =    1.000,"PART-1-1",           410,      -13.7907,       17.4908,            0.,NA,NA,"",   355.288E-03,   268.937E-03,  -232.168E-03,   3.43504E-03
C:/temp/dataset/8/7_36.odb,Step-1,Increment      1: Step Time =    1.000,"PART-1-1",           411,      -12.5378,       18.7233,            0.,NA,NA,"",   396.760E-03,   297.196E-03,  -262.856E-03,   925.929E-06
C:/temp/dataset/8/7_36.odb,Step-1,Increment      1: Step Time =    1.000,"PART-1-1",           412,      -13.7471,       19.9825,            0.,NA,NA,"",   404.425E-03,   334.936E-03,  -226.666E-03,   3.68085E-03
C:/temp/dataset/8/7_36.odb,Step-1,Increment      1: Step Time =    1.000,"PART-1-1",           413,          -15.,         18.75,            0.,NA,NA,"",   361.319E-03,   303.182E-03,  -196.549E-03,   6.84415E-03
C:/temp/dataset/8/7_36.odb,Step-1,Increment      1: Step Time =    1.000,"PART-1-1",           414,      -7.55517,       18.6200,            0.,NA,NA,"",   505.668E-03,   295.823E-03,  -410.108E-03,   11.9412E-03
C:/temp/dataset/8/7_36.odb,Step-1,Increment      1: Step Time =    1.000,"PART-1-1",           415,      -6.28340,       17.4693,            0.,NA,NA,"",   514.568E-03,   279.392E-03,  -432.112E-03,   20.3336E-03
C:/temp/dataset/8/7_36.odb,Step-1,Increment      1: Step Time =    1.000,"PART-1-1",           416,           -5.,         18.75,            0.,NA,NA,"",   587.531E-03,   315.179E-03,  -495.838E-03,   33.3837E-03
C:/temp/dataset/8/7_36.odb,Step-1,Increment      1: Step Time =    1.000,"PART-1-1",           417,      -6.27177,       19.9007,            0.,NA,NA,"",   576.032E-03,   330.647E-03,  -471.683E-03,   20.4505E-03
C:/temp/dataset/8/7_36.odb,Step-1,Increment      1: Step Time =    1.000,"PART-1-1",           418,            5.,         18.75,            0.,NA,NA,"",   958.835E-03,   556.520E-03,  -780.801E-03,   43.1129E-03
C:/temp/dataset/8/7_36.odb,Step-1,Increment      1: Step Time =    1.000,"PART-1-1",           419,       6.32405,       17.6046,            0.,NA,NA,"",   934.606E-03,   570.254E-03,  -740.472E-03,   30.0350E-03
C:/temp/dataset/8/7_36.odb,Step-1,Increment      1: Step Time =    1.000,"PART-1-1",           420,       6.24114,       20.1776,            0.,NA,NA,"",   985.533E-03,   565.831E-03,  -806.915E-03,   34.3160E-03
C:/temp/dataset/8/7_36.odb,Step-1,Increment      1: Step Time =    1.000,"PART-1-1",           421,       5.95216,       22.8319,            0.,NA,NA,"",       1.04934,   551.376E-03,  -892.801E-03,   36.0061E-03
C:/temp/dataset/8/7_36.odb,Step-1,Increment      1: Step Time =    1.000,"PART-1-1",           422,       6.99338,       24.1522,            0.,NA,NA,"",       1.06954,   577.590E-03,  -900.164E-03,   32.4041E-03
C:/temp/dataset/8/7_36.odb,Step-1,Increment      1: Step Time =    1.000,"PART-1-1",           423,       5.83989,       25.3294,            0.,NA,NA,"",       1.11149,   571.378E-03,  -953.381E-03,   31.5142E-03
C:/temp/dataset/8/7_36.odb,Step-1,Increment      1: Step Time =    1.000,"PART-1-1",           424,       4.79866,       24.0091,            0.,NA,NA,"",       1.08749,   542.574E-03,  -942.466E-03,   31.3237E-03
C:/temp/dataset/8/7_36.odb,Step-1,Increment      1: Step Time =    1.000,"PART-1-1",           425,         -6.25,          -30.,            0.,NA,NA,"",            0.,   353.150E-42,  -8.33432E-39,   4.34247E-03
C:/temp/dataset/8/7_36.odb,Step-1,Increment      1: Step Time =    1.000,"PART-1-1",           426,      -4.93028,      -28.8663,            0.,NA,NA,"",   3.62103E-03,   743.049E-06,  -3.54397E-03,   4.07155E-03
C:/temp/dataset/8/7_36.odb,Step-1,Increment      1: Step Time =    1.000,"PART-1-1",           427,      -6.04679,      -27.7538,            0.,NA,NA,"",   8.25788E-03,   330.947E-06,  -8.25125E-03,   4.70505E-03
C:/temp/dataset/8/7_36.odb,Step-1,Increment      1: Step Time =    1.000,"PART-1-1",           428,      -7.36652,      -28.8875,            0.,NA,NA,"",   4.28935E-03,  -329.584E-06,  -4.27667E-03,   4.95670E-03
C:/temp/dataset/8/7_36.odb,Step-1,Increment      1: Step Time =    1.000,"PART-1-1",           429,       8.56540,       1.05942,            0.,NA,NA,"",   505.717E-03,   237.332E-03,  -446.568E-03,   17.5046E-03
C:/temp/dataset/8/7_36.odb,Step-1,Increment      1: Step Time =    1.000,"PART-1-1",           430,       8.80633,       2.55373,            0.,NA,NA,"",   546.979E-03,   270.592E-03,  -475.359E-03,   19.1574E-03
C:/temp/dataset/8/7_36.odb,Step-1,Increment      1: Step Time =    1.000,"PART-1-1",           431,       6.83858,       2.89251,            0.,NA,NA,"",   511.172E-03,   258.114E-03,  -441.219E-03,   17.2844E-03
C:/temp/dataset/8/7_36.odb,Step-1,Increment      1: Step Time =    1.000,"PART-1-1",           432,       6.59765,       1.39821,            0.,NA,NA,"",   472.561E-03,   225.418E-03,  -415.332E-03,   14.6832E-03
C:/temp/dataset/8/7_36.odb,Step-1,Increment      1: Step Time =    1.000,"PART-1-1",           433,       5.99067,      -9.88568,            0.,NA,NA,"",   279.561E-03,   100.821E-03,  -260.748E-03,   16.6605E-03
C:/temp/dataset/8/7_36.odb,Step-1,Increment      1: Step Time =    1.000,"PART-1-1",           434,            5.,        -11.25,            0.,NA,NA,"",   247.412E-03,   83.4918E-03,  -232.899E-03,   16.5574E-03
C:/temp/dataset/8/7_36.odb,Step-1,Increment      1: Step Time =    1.000,"PART-1-1",           435,       6.38802,      -12.3580,            0.,NA,NA,"",   242.400E-03,   86.3648E-03,  -226.493E-03,   17.1734E-03
C:/temp/dataset/8/7_36.odb,Step-1,Increment      1: Step Time =    1.000,"PART-1-1",           436,       7.37869,      -10.9937,            0.,NA,NA,"",   275.788E-03,   103.381E-03,  -255.678E-03,   17.1818E-03
C:/temp/dataset/8/7_36.odb,Step-1,Increment      1: Step Time =    1.000,"PART-1-1",           437,       13.7989,      -7.70794,            0.,NA,NA,"",   410.793E-03,   179.065E-03,  -369.712E-03,   19.8901E-03
C:/temp/dataset/8/7_36.odb,Step-1,Increment      1: Step Time =    1.000,"PART-1-1",           438,       13.8976,      -10.2092,            0.,NA,NA,"",   364.352E-03,   161.336E-03,  -326.685E-03,   19.1519E-03
C:/temp/dataset/8/7_36.odb,Step-1,Increment      1: Step Time =    1.000,"PART-1-1",           439,           15.,      -8.79375,            0.,NA,NA,"",   403.695E-03,   181.519E-03,  -360.584E-03,   20.1145E-03
C:/temp/dataset/8/7_36.odb,Step-1,Increment      1: Step Time =    1.000,"PART-1-1",           440,       13.6474,      -17.7374,            0.,NA,NA,"",   227.966E-03,   107.530E-03,  -201.012E-03,   17.5890E-03
C:/temp/dataset/8/7_36.odb,Step-1,Increment      1: Step Time =    1.000,"PART-1-1",           441,           15.,      -16.3312,            0.,NA,NA,"",   266.523E-03,   128.432E-03,  -233.537E-03,   17.7903E-03
C:/temp/dataset/8/7_36.odb,Step-1,Increment      1: Step Time =    1.000,"PART-1-1",           442,       12.6422,      -19.1389,            0.,NA,NA,"",   193.008E-03,   89.1785E-03,  -171.170E-03,   17.6033E-03
C:/temp/dataset/8/7_36.odb,Step-1,Increment      1: Step Time =    1.000,"PART-1-1",           443,       13.9948,      -20.2453,            0.,NA,NA,"",   187.527E-03,   91.4208E-03,  -163.733E-03,   17.7127E-03
C:/temp/dataset/8/7_36.odb,Step-1,Increment      1: Step Time =    1.000,"PART-1-1",           444,           15.,      -18.8438,            0.,NA,NA,"",   222.830E-03,   110.132E-03,  -193.711E-03,   17.6653E-03
C:/temp/dataset/8/7_36.odb,Step-1,Increment      1: Step Time =    1.000,"PART-1-1",           445,      -5.97701,      -22.8169,            0.,NA,NA,"",   33.8236E-03,  -284.737E-06,  -33.8224E-03,   8.46491E-03
C:/temp/dataset/8/7_36.odb,Step-1,Increment      1: Step Time =    1.000,"PART-1-1",           446,      -7.08093,      -24.1906,            0.,NA,NA,"",   28.5111E-03,  -3.14184E-03,  -28.3374E-03,   7.43764E-03
C:/temp/dataset/8/7_36.odb,Step-1,Increment      1: Step Time =    1.000,"PART-1-1",           447,      -5.92665,      -25.3891,            0.,NA,NA,"",   18.5847E-03,   322.148E-06,  -18.5819E-03,   5.66054E-03
C:/temp/dataset/8/7_36.odb,Step-1,Increment      1: Step Time =    1.000,"PART-1-1",           448,      -4.82272,      -24.0154,            0.,NA,NA,"",   21.4465E-03,   2.64977E-03,  -21.2822E-03,   6.23692E-03
C:/temp/dataset/8/7_36.odb,Step-1,Increment      1: Step Time =    1.000,"PART-1-1",           449,      -9.79394,      -28.8556,            0.,NA,NA,"",   5.39006E-03,  -2.26544E-03,  -4.89086E-03,   5.51236E-03
C:/temp/dataset/8/7_36.odb,Step-1,Increment      1: Step Time =    1.000,"PART-1-1",           450,      -10.8857,      -27.4291,            0.,NA,NA,"",   14.2387E-03,  -7.43770E-03,  -12.1417E-03,   6.43453E-03
C:/temp/dataset/8/7_36.odb,Step-1,Increment      1: Step Time =    1.000,"PART-1-1",           451,      -12.3417,      -28.5735,            0.,NA,NA,"",   8.67691E-03,  -5.69082E-03,  -6.55006E-03,   6.16770E-03
C:/temp/dataset/8/7_36.odb,Step-1,Increment      1: Step Time =    1.000,"PART-1-1",           452,        -11.25,          -30.,            0.,NA,NA,"",            0.,  -1.86808E-39,  -10.0462E-39,   5.44954E-03
C:/temp/dataset/8/7_36.odb,Step-1,Increment      1: Step Time =    1.000,"PART-1-1",           453,      -13.5416,       7.35537,            0.,NA,NA,"",   280.228E-03,   165.172E-03,  -226.376E-03,   6.13457E-03
C:/temp/dataset/8/7_36.odb,Step-1,Increment      1: Step Time =    1.000,"PART-1-1",           454,          -15.,          6.25,            0.,NA,NA,"",   264.968E-03,   157.877E-03,  -212.798E-03,   6.11127E-03
C:/temp/dataset/8/7_36.odb,Step-1,Increment      1: Step Time =    1.000,"PART-1-1",           455,      -13.9209,       4.81128,            0.,NA,NA,"",   261.147E-03,   156.613E-03,  -208.974E-03,   7.78766E-03
C:/temp/dataset/8/7_36.odb,Step-1,Increment      1: Step Time =    1.000,"PART-1-1",           456,      -12.4625,       5.91665,            0.,NA,NA,"",   279.935E-03,   164.602E-03,  -226.428E-03,   8.08718E-03
C:/temp/dataset/8/7_36.odb,Step-1,Increment      1: Step Time =    1.000,"PART-1-1",           457,      -14.0708,       2.40501,            0.,NA,NA,"",   239.784E-03,   146.265E-03,  -190.008E-03,   9.18242E-03
C:/temp/dataset/8/7_36.odb,Step-1,Increment      1: Step Time =    1.000,"PART-1-1",           458,          -15.,          1.25,            0.,NA,NA,"",   220.801E-03,   135.622E-03,  -174.241E-03,   9.92616E-03
C:/temp/dataset/8/7_36.odb,Step-1,Increment      1: Step Time =    1.000,"PART-1-1",           459,      -13.9250,  -19.9917E-03,            0.,NA,NA,"",   215.543E-03,   131.571E-03,  -170.728E-03,   9.53179E-03
C:/temp/dataset/8/7_36.odb,Step-1,Increment      1: Step Time =    1.000,"PART-1-1",           460,      -12.9958,       1.13502,            0.,NA,NA,"",   235.868E-03,   143.539E-03,  -187.164E-03,   8.85799E-03
C:/temp/dataset/8/7_36.odb,Step-1,Increment      1: Step Time =    1.000,"PART-1-1",           461,      -13.6379,      -2.69968,            0.,NA,NA,"",   186.335E-03,   109.270E-03,  -150.933E-03,   8.96610E-03
C:/temp/dataset/8/7_36.odb,Step-1,Increment      1: Step Time =    1.000,"PART-1-1",           462,          -15.,         -3.75,            0.,NA,NA,"",   159.895E-03,   93.3797E-03,  -129.794E-03,   8.88477E-03
C:/temp/dataset/8/7_36.odb,Step-1,Increment      1: Step Time =    1.000,"PART-1-1",           463,      -14.1619,      -5.01388,            0.,NA,NA,"",   153.094E-03,   83.4845E-03,  -128.328E-03,   8.16870E-03
C:/temp/dataset/8/7_36.odb,Step-1,Increment      1: Step Time =    1.000,"PART-1-1",           464,      -12.7999,      -3.96356,            0.,NA,NA,"",   178.704E-03,   99.6306E-03,  -148.354E-03,   8.34196E-03
C:/temp/dataset/8/7_36.odb,Step-1,Increment      1: Step Time =    1.000,"PART-1-1",           465,          -15.,         -8.75,            0.,NA,NA,"",   104.275E-03,   42.1026E-03,  -95.3977E-03,   6.37489E-03
C:/temp/dataset/8/7_36.odb,Step-1,Increment      1: Step Time =    1.000,"PART-1-1",           466,      -13.7347,      -9.99741,            0.,NA,NA,"",   105.249E-03,   33.5955E-03,  -99.7436E-03,   6.44874E-03
C:/temp/dataset/8/7_36.odb,Step-1,Increment      1: Step Time =    1.000,"PART-1-1",           467,      -12.3830,      -8.57467,            0.,NA,NA,"",   130.454E-03,   51.7529E-03,  -119.749E-03,   7.39634E-03
C:/temp/dataset/8/7_36.odb,Step-1,Increment      1: Step Time =    1.000,"PART-1-1",           468,      -13.6483,      -7.32726,            0.,NA,NA,"",   131.848E-03,   60.6973E-03,  -117.046E-03,   7.28568E-03
C:/temp/dataset/8/7_36.odb,Step-1,Increment      1: Step Time =    1.000,"PART-1-1",           469,      -11.2230,      -10.0773,            0.,NA,NA,"",   125.491E-03,   40.5574E-03,  -118.756E-03,   7.65279E-03
C:/temp/dataset/8/7_36.odb,Step-1,Increment      1: Step Time =    1.000,"PART-1-1",           470,      -9.87779,      -9.01965,            0.,NA,NA,"",   147.179E-03,   55.5149E-03,  -136.308E-03,   8.15353E-03
C:/temp/dataset/8/7_36.odb,Step-1,Increment      1: Step Time =    1.000,"PART-1-1",           471,      -11.0378,      -7.51697,            0.,NA,NA,"",   153.248E-03,   67.1810E-03,  -137.738E-03,   7.83616E-03
C:/temp/dataset/8/7_36.odb,Step-1,Increment      1: Step Time =    1.000,"PART-1-1",           472,       1.25332,  -40.8297E-03,            0.,NA,NA,"",   363.654E-03,   181.344E-03,  -315.212E-03,   984.726E-06
C:/temp/dataset/8/7_36.odb,Step-1,Increment      1: Step Time =    1.000,"PART-1-1",           473,  -7.28452E-03,      -1.27665,            0.,NA,NA,"",   341.028E-03,   165.423E-03,  -298.221E-03,   737.824E-06
C:/temp/dataset/8/7_36.odb,Step-1,Increment      1: Step Time =    1.000,"PART-1-1",           474,       3.65826,       22.6797,            0.,NA,NA,"",       1.05877,   508.906E-03,  -928.445E-03,   22.5981E-03
C:/temp/dataset/8/7_36.odb,Step-1,Increment      1: Step Time =    1.000,"PART-1-1",           475,       2.49339,       21.3176,            0.,NA,NA,"",       1.03371,   479.315E-03,  -915.872E-03,   21.7741E-03
C:/temp/dataset/8/7_36.odb,Step-1,Increment      1: Step Time =    1.000,"PART-1-1",           476,          3.75,           20.,            0.,NA,NA,"",       1.02892,   509.830E-03,  -893.727E-03,   30.5514E-03
C:/temp/dataset/8/7_36.odb,Step-1,Increment      1: Step Time =    1.000,"PART-1-1",           477,       4.91487,       21.3621,            0.,NA,NA,"",       1.02153,   520.929E-03,  -878.728E-03,   36.5584E-03
C:/temp/dataset/8/7_36.odb,Step-1,Increment      1: Step Time =    1.000,"PART-1-1",           478,       12.6680,       11.1714,            0.,NA,NA,"",   852.916E-03,   519.089E-03,  -676.766E-03,   14.4297E-03
C:/temp/dataset/8/7_36.odb,Step-1,Increment      1: Step Time =    1.000,"PART-1-1",           479,       14.0273,       9.92409,            0.,NA,NA,"",   848.081E-03,   498.587E-03,  -686.041E-03,   13.1081E-03
C:/temp/dataset/8/7_36.odb,Step-1,Increment      1: Step Time =    1.000,"PART-1-1",           480,           15.,       11.1563,            0.,NA,NA,"",   894.110E-03,   530.923E-03,  -719.412E-03,   10.1149E-03
C:/temp/dataset/8/7_36.odb,Step-1,Increment      1: Step Time =    1.000,"PART-1-1",           481,       14.0536,       7.56100,            0.,NA,NA,"",   790.063E-03,   441.205E-03,  -655.391E-03,   15.9524E-03
C:/temp/dataset/8/7_36.odb,Step-1,Increment      1: Step Time =    1.000,"PART-1-1",           482,       12.9489,       6.56322,            0.,NA,NA,"",   739.821E-03,   407.735E-03,  -617.323E-03,   17.5129E-03
C:/temp/dataset/8/7_36.odb,Step-1,Increment      1: Step Time =    1.000,"PART-1-1",           483,       13.8953,       5.18972,            0.,NA,NA,"",   722.811E-03,   380.442E-03,  -614.589E-03,   18.7569E-03
C:/temp/dataset/8/7_36.odb,Step-1,Increment      1: Step Time =    1.000,"PART-1-1",           484,           15.,        6.1875,            0.,NA,NA,"",   776.371E-03,   413.886E-03,  -656.848E-03,   17.4170E-03
C:/temp/dataset/8/7_36.odb,Step-1,Increment      1: Step Time =    1.000,"PART-1-1",           485,       6.19023,       9.87877,            0.,NA,NA,"",   703.000E-03,   436.460E-03,  -551.100E-03,   23.0770E-03
C:/temp/dataset/8/7_36.odb,Step-1,Increment      1: Step Time =    1.000,"PART-1-1",           486,            5.,          8.75,            0.,NA,NA,"",   639.013E-03,   397.387E-03,  -500.421E-03,   23.4483E-03
C:/temp/dataset/8/7_36.odb,Step-1,Increment      1: Step Time =    1.000,"PART-1-1",           487,       6.03335,       7.50406,            0.,NA,NA,"",   625.923E-03,   376.972E-03,  -499.672E-03,   20.6379E-03
C:/temp/dataset/8/7_36.odb,Step-1,Increment      1: Step Time =    1.000,"PART-1-1",           488,   27.3265E-03,       3.74387,            0.,NA,NA,"",   381.429E-03,   231.095E-03,  -303.452E-03,   6.36675E-03
C:/temp/dataset/8/7_36.odb,Step-1,Increment      1: Step Time =    1.000,"PART-1-1",           489,         -1.25,            5.,            0.,NA,NA,"",   376.746E-03,   238.233E-03,  -291.861E-03,   8.91202E-03
C:/temp/dataset/8/7_36.odb,Step-1,Increment      1: Step Time =    1.000,"PART-1-1",           490,      -2.45237,       3.76475,            0.,NA,NA,"",   350.105E-03,   216.984E-03,  -274.757E-03,   6.27556E-03
C:/temp/dataset/8/7_36.odb,Step-1,Increment      1: Step Time =    1.000,"PART-1-1",           491,      -3.55115,       2.55808,            0.,NA,NA,"",   331.493E-03,   202.012E-03,  -262.829E-03,   4.05776E-03
C:/temp/dataset/8/7_36.odb,Step-1,Increment      1: Step Time =    1.000,"PART-1-1",           492,         -3.75,            5.,            0.,NA,NA,"",   344.869E-03,   216.310E-03,  -268.597E-03,   9.86877E-03
C:/temp/dataset/8/7_36.odb,Step-1,Increment      1: Step Time =    1.000,"PART-1-1",           493,      -4.84878,       3.79333,            0.,NA,NA,"",   331.432E-03,   204.623E-03,  -260.723E-03,   8.05872E-03
C:/temp/dataset/8/7_36.odb,Step-1,Increment      1: Step Time =    1.000,"PART-1-1",           494,      -13.7266,       27.6069,            0.,NA,NA,"",   664.464E-03,   627.538E-03,  -218.424E-03,   1.23292E-03
C:/temp/dataset/8/7_36.odb,Step-1,Increment      1: Step Time =    1.000,"PART-1-1",           495,          -15.,         26.25,            0.,NA,NA,"",   596.040E-03,   572.236E-03,  -166.761E-03,   2.04154E-03
C:/temp/dataset/8/7_36.odb,Step-1,Increment      1: Step Time =    1.000,"PART-1-1",           496,      -13.4390,       25.0675,            0.,NA,NA,"",   569.252E-03,   520.862E-03,  -229.674E-03,   1.97544E-03
C:/temp/dataset/8/7_36.odb,Step-1,Increment      1: Step Time =    1.000,"PART-1-1",           497,      -12.1656,       26.4243,            0.,NA,NA,"",   640.539E-03,   576.252E-03,  -279.687E-03,   2.07882E-03
C:/temp/dataset/8/7_36.odb,Step-1,Increment      1: Step Time =    1.000,"PART-1-1",           498,      -3.53423,       23.8764,            0.,NA,NA,"",   841.474E-03,   487.818E-03,  -685.648E-03,   21.4495E-03
C:/temp/dataset/8/7_36.odb,Step-1,Increment      1: Step Time =    1.000,"PART-1-1",           499,      -4.97219,       24.1974,            0.,NA,NA,"",   779.145E-03,   495.093E-03,  -601.622E-03,   17.7808E-03
C:/temp/dataset/8/7_36.odb,Step-1,Increment      1: Step Time =    1.000,"PART-1-1",           500,      -5.34958,       22.7893,            0.,NA,NA,"",   722.223E-03,   447.247E-03,  -567.077E-03,   19.8583E-03
C:/temp/dataset/8/7_36.odb,Step-1,Increment      1: Step Time =    1.000,"PART-1-1",           501,      -3.91162,       22.4683,            0.,NA,NA,"",   788.836E-03,   444.627E-03,  -651.590E-03,   23.0860E-03
C:/temp/dataset/8/7_36.odb,Step-1,Increment      1: Step Time =    1.000,"PART-1-1",           502,      -12.4008,       21.2127,            0.,NA,NA,"",   458.427E-03,   372.616E-03,  -267.043E-03,   1.36973E-03
C:/temp/dataset/8/7_36.odb,Step-1,Increment      1: Step Time =    1.000,"PART-1-1",           503,      -13.6537,       22.4802,            0.,NA,NA,"",   475.702E-03,   419.521E-03,  -224.264E-03,   2.92277E-03
C:/temp/dataset/8/7_36.odb,Step-1,Increment      1: Step Time =    1.000,"PART-1-1",           504,          -15.,         21.25,            0.,NA,NA,"",   420.815E-03,   379.311E-03,  -182.232E-03,   6.18457E-03
C:/temp/dataset/8/7_36.odb,Step-1,Increment      1: Step Time =    1.000,"PART-1-1",           505,      -8.82885,       17.4394,            0.,NA,NA,"",   449.221E-03,   268.514E-03,  -360.138E-03,   11.1888E-03
C:/temp/dataset/8/7_36.odb,Step-1,Increment      1: Step Time =    1.000,"PART-1-1",           506,      -8.77308,       19.8173,            0.,NA,NA,"",   501.612E-03,   327.863E-03,  -379.632E-03,   7.71394E-03
C:/temp/dataset/8/7_36.odb,Step-1,Increment      1: Step Time =    1.000,"PART-1-1",           507,      -10.0468,       18.6367,            0.,NA,NA,"",   444.170E-03,   294.254E-03,  -332.717E-03,   5.62609E-03
C:/temp/dataset/8/7_36.odb,Step-1,Increment      1: Step Time =    1.000,"PART-1-1",           508,   22.7198E-03,       21.3114,            0.,NA,NA,"",   965.117E-03,   436.053E-03,  -860.993E-03,   19.8955E-03
C:/temp/dataset/8/7_36.odb,Step-1,Increment      1: Step Time =    1.000,"PART-1-1",           509,          1.25,           20.,            0.,NA,NA,"",   982.443E-03,   432.263E-03,  -882.238E-03,   31.4795E-03
C:/temp/dataset/8/7_36.odb,Step-1,Increment      1: Step Time =    1.000,"PART-1-1",           510,       14.0304,       22.4987,            0.,NA,NA,"",   996.253E-03,   630.471E-03,  -771.380E-03,   3.59083E-03
C:/temp/dataset/8/7_36.odb,Step-1,Increment      1: Step Time =    1.000,"PART-1-1",           511,       12.8970,       21.3651,            0.,NA,NA,"",   996.771E-03,   630.197E-03,  -772.273E-03,   7.45925E-03
C:/temp/dataset/8/7_36.odb,Step-1,Increment      1: Step Time =    1.000,"PART-1-1",           512,       13.8666,       20.0727,            0.,NA,NA,"",   990.969E-03,   632.787E-03,  -762.627E-03,   5.38218E-03
C:/temp/dataset/8/7_36.odb,Step-1,Increment      1: Step Time =    1.000,"PART-1-1",           513,           15.,       21.2062,            0.,NA,NA,"",   994.161E-03,   634.642E-03,  -765.235E-03,   1.59458E-03
C:/temp/dataset/8/7_36.odb,Step-1,Increment      1: Step Time =    1.000,"PART-1-1",           514,       8.59704,       27.3306,            0.,NA,NA,"",       1.07980,   593.070E-03,  -902.351E-03,   22.4711E-03
C:/temp/dataset/8/7_36.odb,Step-1,Increment      1: Step Time =    1.000,"PART-1-1",           515,       9.95970,       28.5191,            0.,NA,NA,"",       1.02915,   568.932E-03,  -857.596E-03,   4.90889E-03
C:/temp/dataset/8/7_36.odb,Step-1,Increment      1: Step Time =    1.000,"PART-1-1",           516,          8.75,           30.,            0.,NA,NA,"",       1.04117,   528.957E-03,  -896.799E-03,   4.00557E-03
C:/temp/dataset/8/7_36.odb,Step-1,Increment      1: Step Time =    1.000,"PART-1-1",           517,       7.38734,       28.8115,            0.,NA,NA,"",       1.12716,   580.530E-03,  -966.168E-03,   26.5820E-03
C:/temp/dataset/8/7_36.odb,Step-1,Increment      1: Step Time =    1.000,"PART-1-1",           518,       7.27843,       21.6473,            0.,NA,NA,"",       1.01328,   576.560E-03,  -833.255E-03,   31.5270E-03
C:/temp/dataset/8/7_36.odb,Step-1,Increment      1: Step Time =    1.000,"PART-1-1",           519,   2.36529E-03,       28.7726,            0.,NA,NA,"",       1.10502,   614.838E-03,  -918.172E-03,   26.4945E-03
C:/temp/dataset/8/7_36.odb,Step-1,Increment      1: Step Time =    1.000,"PART-1-1",           520,       1.23392,       27.5966,            0.,NA,NA,"",       1.12796,   572.527E-03,  -971.857E-03,   25.2667E-03
C:/temp/dataset/8/7_36.odb,Step-1,Increment      1: Step Time =    1.000,"PART-1-1",           521,          1.25,           30.,            0.,NA,NA,"",       1.21219,   658.961E-03,      -1.01744,   37.0212E-03
C:/temp/dataset/8/7_36.odb,Step-1,Increment      1: Step Time =    1.000,"PART-1-1",           522,      -5.24302,       28.8844,            0.,NA,NA,"",   903.179E-03,   677.019E-03,  -597.811E-03,   4.18075E-03
C:/temp/dataset/8/7_36.odb,Step-1,Increment      1: Step Time =    1.000,"PART-1-1",           523,      -2.65236,       28.5441,            0.,NA,NA,"",   983.907E-03,   644.409E-03,  -743.512E-03,   11.6868E-03
C:/temp/dataset/8/7_36.odb,Step-1,Increment      1: Step Time =    1.000,"PART-1-1",           524,         -3.75,           30.,            0.,NA,NA,"",   994.652E-03,   727.251E-03,  -678.555E-03,   5.11931E-03
C:/temp/dataset/8/7_36.odb,Step-1,Increment      1: Step Time =    1.000,"PART-1-1",           525,      -7.66876,       29.0336,            0.,NA,NA,"",   836.795E-03,   688.107E-03,  -476.166E-03,   1.74863E-03
C:/temp/dataset/8/7_36.odb,Step-1,Increment      1: Step Time =    1.000,"PART-1-1",           526,      -6.66179,       27.9180,            0.,NA,NA,"",   824.812E-03,   637.278E-03,  -523.634E-03,   4.83687E-03
C:/temp/dataset/8/7_36.odb,Step-1,Increment      1: Step Time =    1.000,"PART-1-1",           527,         -6.25,           30.,            0.,NA,NA,"",   915.033E-03,   733.587E-03,  -546.932E-03,   647.879E-06
C:/temp/dataset/8/7_36.odb,Step-1,Increment      1: Step Time =    1.000,"PART-1-1",           528,      -8.85404,       25.1616,            0.,NA,NA,"",   666.413E-03,   524.190E-03,  -411.498E-03,   4.26353E-03
C:/temp/dataset/8/7_36.odb,Step-1,Increment      1: Step Time =    1.000,"PART-1-1",           529,      -8.24061,       24.0412,            0.,NA,NA,"",   646.668E-03,   480.886E-03,  -432.352E-03,   7.66080E-03
C:/temp/dataset/8/7_36.odb,Step-1,Increment      1: Step Time =    1.000,"PART-1-1",           530,      -6.78352,       24.7872,            0.,NA,NA,"",   720.820E-03,   512.612E-03,  -506.765E-03,   10.4115E-03
C:/temp/dataset/8/7_36.odb,Step-1,Increment      1: Step Time =    1.000,"PART-1-1",           531,      -7.39696,       25.9076,            0.,NA,NA,"",   735.152E-03,   555.064E-03,  -482.030E-03,   7.03540E-03
C:/temp/dataset/8/7_36.odb,Step-1,Increment      1: Step Time =    1.000,"PART-1-1",           532,      -12.4766,       28.8569,            0.,NA,NA,"",   731.040E-03,   679.445E-03,  -269.766E-03,   1.24405E-03
C:/temp/dataset/8/7_36.odb,Step-1,Increment      1: Step Time =    1.000,"PART-1-1",           533,        -13.75,           30.,            0.,NA,NA,"",   759.639E-03,   727.324E-03,  -219.206E-03,   336.319E-06
C:/temp/dataset/8/7_36.odb,Step-1,Increment      1: Step Time =    1.000,"PART-1-1",           534,          -15.,         28.75,            0.,NA,NA,"",   696.901E-03,   676.650E-03,  -166.783E-03,   345.143E-06
C:/temp/dataset/8/7_36.odb,Step-1,Increment      1: Step Time =    1.000,"PART-1-1",           535,      -7.56181,       16.2193,            0.,NA,NA,"",   455.668E-03,   251.977E-03,  -379.659E-03,   15.4019E-03
C:/temp/dataset/8/7_36.odb,Step-1,Increment      1: Step Time =    1.000,"PART-1-1",           536,      -6.27841,       15.0000,            0.,NA,NA,"",   458.634E-03,   244.489E-03,  -388.033E-03,   17.8703E-03
C:/temp/dataset/8/7_36.odb,Step-1,Increment      1: Step Time =    1.000,"PART-1-1",           537,           -5.,         16.25,            0.,NA,NA,"",   511.257E-03,   274.036E-03,  -431.611E-03,   23.3192E-03
C:/temp/dataset/8/7_36.odb,Step-1,Increment      1: Step Time =    1.000,"PART-1-1",           538,      -8.82455,       15.0032,            0.,NA,NA,"",   408.534E-03,   229.328E-03,  -338.096E-03,   11.8311E-03
C:/temp/dataset/8/7_36.odb,Step-1,Increment      1: Step Time =    1.000,"PART-1-1",           539,      -10.0916,       16.2233,            0.,NA,NA,"",   401.350E-03,   243.804E-03,  -318.812E-03,   8.09261E-03
C:/temp/dataset/8/7_36.odb,Step-1,Increment      1: Step Time =    1.000,"PART-1-1",           540,      -13.7530,       10.0200,            0.,NA,NA,"",   292.932E-03,   175.068E-03,  -234.862E-03,   3.73424E-03
C:/temp/dataset/8/7_36.odb,Step-1,Increment      1: Step Time =    1.000,"PART-1-1",           541,      -12.5412,       11.2886,            0.,NA,NA,"",   312.024E-03,   184.152E-03,  -251.888E-03,   5.63316E-03
C:/temp/dataset/8/7_36.odb,Step-1,Increment      1: Step Time =    1.000,"PART-1-1",           542,          -15.,         11.25,            0.,NA,NA,"",   290.236E-03,   182.194E-03,  -225.925E-03,   448.813E-06
C:/temp/dataset/8/7_36.odb,Step-1,Increment      1: Step Time =    1.000,"PART-1-1",           543,      -7.55812,       13.7752,            0.,NA,NA,"",   413.467E-03,   221.385E-03,  -349.204E-03,   14.2664E-03
C:/temp/dataset/8/7_36.odb,Step-1,Increment      1: Step Time =    1.000,"PART-1-1",           544,      -6.27971,       12.5252,            0.,NA,NA,"",   413.457E-03,   217.786E-03,  -351.448E-03,   15.5697E-03
C:/temp/dataset/8/7_36.odb,Step-1,Increment      1: Step Time =    1.000,"PART-1-1",           545,           -5.,         13.75,            0.,NA,NA,"",   454.348E-03,   239.691E-03,  -385.980E-03,   19.3079E-03
C:/temp/dataset/8/7_36.odb,Step-1,Increment      1: Step Time =    1.000,"PART-1-1",           546,      -7.73665,       8.67409,            0.,NA,NA,"",   347.770E-03,   188.557E-03,  -292.216E-03,   11.1521E-03
C:/temp/dataset/8/7_36.odb,Step-1,Increment      1: Step Time =    1.000,"PART-1-1",           547,      -6.44095,       7.39158,            0.,NA,NA,"",   347.286E-03,   192.103E-03,  -289.317E-03,   10.9544E-03
C:/temp/dataset/8/7_36.odb,Step-1,Increment      1: Step Time =    1.000,"PART-1-1",           548,           -5.,          8.75,            0.,NA,NA,"",   371.972E-03,   203.735E-03,  -311.216E-03,   13.9073E-03
C:/temp/dataset/8/7_36.odb,Step-1,Increment      1: Step Time =    1.000,"PART-1-1",           549,      -6.29569,       10.0325,            0.,NA,NA,"",   377.205E-03,   201.254E-03,  -319.031E-03,   13.4108E-03
C:/temp/dataset/8/7_36.odb,Step-1,Increment      1: Step Time =    1.000,"PART-1-1",           550,      -10.9758,       6.36562,            0.,NA,NA,"",   296.718E-03,   170.898E-03,  -242.560E-03,   9.08686E-03
C:/temp/dataset/8/7_36.odb,Step-1,Increment      1: Step Time =    1.000,"PART-1-1",           551,      -11.8413,       4.12979,            0.,NA,NA,"",   272.634E-03,   162.338E-03,  -219.034E-03,   8.85180E-03
C:/temp/dataset/8/7_36.odb,Step-1,Increment      1: Step Time =    1.000,"PART-1-1",           552,      -10.3546,       4.57877,            0.,NA,NA,"",   290.155E-03,   170.161E-03,  -235.022E-03,   9.75256E-03
C:/temp/dataset/8/7_36.odb,Step-1,Increment      1: Step Time =    1.000,"PART-1-1",           553,      -7.08205,   206.599E-03,            0.,NA,NA,"",   280.153E-03,   166.014E-03,  -225.666E-03,   7.90727E-03
C:/temp/dataset/8/7_36.odb,Step-1,Increment      1: Step Time =    1.000,"PART-1-1",           554,      -6.69954,      -1.33924,            0.,NA,NA,"",   267.115E-03,   152.924E-03,  -219.008E-03,   7.25422E-03
C:/temp/dataset/8/7_36.odb,Step-1,Increment      1: Step Time =    1.000,"PART-1-1",           555,      -5.21800,      -1.06475,            0.,NA,NA,"",   285.537E-03,   161.467E-03,  -235.499E-03,   5.26703E-03
C:/temp/dataset/8/7_36.odb,Step-1,Increment      1: Step Time =    1.000,"PART-1-1",           556,      -5.60050,   481.094E-03,            0.,NA,NA,"",   296.680E-03,   175.391E-03,  -239.284E-03,   6.05739E-03
C:/temp/dataset/8/7_36.odb,Step-1,Increment      1: Step Time =    1.000,"PART-1-1",           557,      -4.73446,       1.39984,            0.,NA,NA,"",   312.606E-03,   187.324E-03,  -250.264E-03,   5.23702E-03
C:/temp/dataset/8/7_36.odb,Step-1,Increment      1: Step Time =    1.000,"PART-1-1",           558,      -3.61900,   109.065E-03,            0.,NA,NA,"",   311.867E-03,   178.096E-03,  -256.014E-03,   2.97670E-03
C:/temp/dataset/8/7_36.odb,Step-1,Increment      1: Step Time =    1.000,"PART-1-1",           559,      -7.98156,      -4.65830,            0.,NA,NA,"",   213.824E-03,   109.301E-03,  -183.777E-03,   8.15185E-03
C:/temp/dataset/8/7_36.odb,Step-1,Increment      1: Step Time =    1.000,"PART-1-1",           560,      -6.28336,      -5.33649,            0.,NA,NA,"",   223.214E-03,   106.085E-03,  -196.394E-03,   8.14514E-03
C:/temp/dataset/8/7_36.odb,Step-1,Increment      1: Step Time =    1.000,"PART-1-1",           561,      -5.33231,      -3.67126,            0.,NA,NA,"",   257.088E-03,   131.979E-03,  -220.626E-03,   6.75576E-03
C:/temp/dataset/8/7_36.odb,Step-1,Increment      1: Step Time =    1.000,"PART-1-1",           562,      -7.03052,      -2.99307,            0.,NA,NA,"",   244.344E-03,   133.204E-03,  -204.842E-03,   7.75234E-03
C:/temp/dataset/8/7_36.odb,Step-1,Increment      1: Step Time =    1.000,"PART-1-1",           563,      -9.50974,      -4.32763,            0.,NA,NA,"",   203.527E-03,   107.903E-03,  -172.569E-03,   8.06199E-03
C:/temp/dataset/8/7_36.odb,Step-1,Increment      1: Step Time =    1.000,"PART-1-1",           564,      -9.07232,      -2.62983,            0.,NA,NA,"",   228.232E-03,   128.621E-03,  -188.539E-03,   8.47601E-03
C:/temp/dataset/8/7_36.odb,Step-1,Increment      1: Step Time =    1.000,"PART-1-1",           565,      -11.0121,      -2.25769,            0.,NA,NA,"",   215.208E-03,   124.274E-03,  -175.700E-03,   8.53502E-03
C:/temp/dataset/8/7_36.odb,Step-1,Increment      1: Step Time =    1.000,"PART-1-1",           566,      -11.4495,      -3.95549,            0.,NA,NA,"",   190.844E-03,   104.773E-03,  -159.511E-03,   8.31790E-03
C:/temp/dataset/8/7_36.odb,Step-1,Increment      1: Step Time =    1.000,"PART-1-1",           567,      -12.8102,      -6.09114,            0.,NA,NA,"",   153.410E-03,   76.6593E-03,  -132.884E-03,   7.89116E-03
C:/temp/dataset/8/7_36.odb,Step-1,Increment      1: Step Time =    1.000,"PART-1-1",           568,          -15.,         -6.25,            0.,NA,NA,"",   130.000E-03,   67.5288E-03,  -111.085E-03,   7.59503E-03
C:/temp/dataset/8/7_36.odb,Step-1,Increment      1: Step Time =    1.000,"PART-1-1",           569,      -12.4910,      -11.2807,            0.,NA,NA,"",   104.875E-03,   25.3984E-03,  -101.753E-03,   6.88787E-03
C:/temp/dataset/8/7_36.odb,Step-1,Increment      1: Step Time =    1.000,"PART-1-1",           570,      -11.2625,      -12.5870,            0.,NA,NA,"",   103.202E-03,   18.0531E-03,  -101.611E-03,   7.48141E-03
C:/temp/dataset/8/7_36.odb,Step-1,Increment      1: Step Time =    1.000,"PART-1-1",           571,      -9.99448,      -11.3836,            0.,NA,NA,"",   122.635E-03,   32.6854E-03,  -118.199E-03,   8.25374E-03
C:/temp/dataset/8/7_36.odb,Step-1,Increment      1: Step Time =    1.000,"PART-1-1",           572,      -13.7563,      -12.5333,            0.,NA,NA,"",   86.3845E-03,   11.2528E-03,  -85.6485E-03,   5.75062E-03
C:/temp/dataset/8/7_36.odb,Step-1,Increment      1: Step Time =    1.000,"PART-1-1",           573,          -15.,        -11.25,            0.,NA,NA,"",   84.4100E-03,   18.9223E-03,  -82.2618E-03,   5.34185E-03
C:/temp/dataset/8/7_36.odb,Step-1,Increment      1: Step Time =    1.000,"PART-1-1",           574,      -8.71470,      -10.1608,            0.,NA,NA,"",   144.983E-03,   48.6483E-03,  -136.577E-03,   8.82873E-03
C:/temp/dataset/8/7_36.odb,Step-1,Increment      1: Step Time =    1.000,"PART-1-1",           575,      -7.42250,      -8.98868,            0.,NA,NA,"",   169.248E-03,   64.8224E-03,  -156.342E-03,   9.14835E-03
C:/temp/dataset/8/7_36.odb,Step-1,Increment      1: Step Time =    1.000,"PART-1-1",           576,      -8.58559,      -7.84754,            0.,NA,NA,"",   171.259E-03,   71.9553E-03,  -155.409E-03,   8.47371E-03
C:/temp/dataset/8/7_36.odb,Step-1,Increment      1: Step Time =    1.000,"PART-1-1",           577,      -7.50843,      -13.8545,            0.,NA,NA,"",   115.683E-03,   22.3693E-03,  -113.500E-03,   10.1178E-03
C:/temp/dataset/8/7_36.odb,Step-1,Increment      1: Step Time =    1.000,"PART-1-1",           578,      -6.25915,      -15.0553,            0.,NA,NA,"",   111.109E-03,   19.9262E-03,  -109.307E-03,   11.2996E-03
C:/temp/dataset/8/7_36.odb,Step-1,Increment      1: Step Time =    1.000,"PART-1-1",           579,           -5.,        -13.75,            0.,NA,NA,"",   135.492E-03,   35.3534E-03,  -130.798E-03,   11.7390E-03
C:/temp/dataset/8/7_36.odb,Step-1,Increment      1: Step Time =    1.000,"PART-1-1",           580,      -6.24927,      -12.5492,            0.,NA,NA,"",   139.263E-03,   38.2768E-03,  -133.899E-03,   10.6355E-03
C:/temp/dataset/8/7_36.odb,Step-1,Increment      1: Step Time =    1.000,"PART-1-1",           581,      -11.2908,      -17.6967,            0.,NA,NA,"",   70.5964E-03,  -13.4761E-03,  -69.2982E-03,   6.53668E-03
C:/temp/dataset/8/7_36.odb,Step-1,Increment      1: Step Time =    1.000,"PART-1-1",           582,      -12.6364,      -18.8537,            0.,NA,NA,"",   62.6575E-03,  -20.2948E-03,  -59.2797E-03,   5.67614E-03
C:/temp/dataset/8/7_36.odb,Step-1,Increment      1: Step Time =    1.000,"PART-1-1",           583,      -11.4151,      -20.3877,            0.,NA,NA,"",   56.9563E-03,  -19.6266E-03,  -53.4679E-03,   6.40407E-03
C:/temp/dataset/8/7_36.odb,Step-1,Increment      1: Step Time =    1.000,"PART-1-1",           584,      -10.0695,      -19.2307,            0.,NA,NA,"",   64.5732E-03,  -14.4552E-03,  -62.9344E-03,   7.06617E-03
C:/temp/dataset/8/7_36.odb,Step-1,Increment      1: Step Time =    1.000,"PART-1-1",           585,      -7.51548,      -16.3910,            0.,NA,NA,"",   90.6191E-03,   5.09436E-03,  -90.4758E-03,   10.2425E-03
C:/temp/dataset/8/7_36.odb,Step-1,Increment      1: Step Time =    1.000,"PART-1-1",           586,      -6.25633,      -17.5856,            0.,NA,NA,"",   82.0574E-03,   3.56572E-03,  -81.9799E-03,   11.9804E-03
C:/temp/dataset/8/7_36.odb,Step-1,Increment      1: Step Time =    1.000,"PART-1-1",           587,           -5.,        -16.25,            0.,NA,NA,"",   105.819E-03,   19.3160E-03,  -104.041E-03,   13.0183E-03
C:/temp/dataset/8/7_36.odb,Step-1,Increment      1: Step Time =    1.000,"PART-1-1",           588,      -10.0186,      -13.8764,            0.,NA,NA,"",   100.459E-03,   12.2238E-03,  -99.7121E-03,   8.18403E-03
C:/temp/dataset/8/7_36.odb,Step-1,Increment      1: Step Time =    1.000,"PART-1-1",           589,      -8.77159,      -15.1281,            0.,NA,NA,"",   96.5564E-03,   8.07632E-03,  -96.2180E-03,   9.19427E-03
C:/temp/dataset/8/7_36.odb,Step-1,Increment      1: Step Time =    1.000,"PART-1-1",           590,      -8.75544,      -12.6029,            0.,NA,NA,"",   119.837E-03,   26.9264E-03,  -116.773E-03,   9.06719E-03
C:/temp/dataset/8/7_36.odb,Step-1,Increment      1: Step Time =    1.000,"PART-1-1",           591,      -7.46407,      -18.9773,            0.,NA,NA,"",   68.2073E-03,  -7.18793E-03,  -67.8275E-03,   8.47410E-03
C:/temp/dataset/8/7_36.odb,Step-1,Increment      1: Step Time =    1.000,"PART-1-1",           592,      -8.77449,      -17.7191,            0.,NA,NA,"",   76.0572E-03,  -6.23517E-03,  -75.8012E-03,   8.67026E-03
C:/temp/dataset/8/7_36.odb,Step-1,Increment      1: Step Time =    1.000,"PART-1-1",           593,      -8.75908,      -20.4889,            0.,NA,NA,"",   57.5555E-03,  -12.1128E-03,  -56.2664E-03,   7.64915E-03
C:/temp/dataset/8/7_36.odb,Step-1,Increment      1: Step Time =    1.000,"PART-1-1",           594,      -14.0314,      -22.4081,            0.,NA,NA,"",   48.3484E-03,  -26.0140E-03,  -40.7534E-03,   5.00591E-03
C:/temp/dataset/8/7_36.odb,Step-1,Increment      1: Step Time =    1.000,"PART-1-1",           595,      -12.8952,      -21.1986,            0.,NA,NA,"",   52.7571E-03,  -23.7315E-03,  -47.1183E-03,   5.65072E-03
C:/temp/dataset/8/7_36.odb,Step-1,Increment      1: Step Time =    1.000,"PART-1-1",           596,      -13.8638,      -20.0405,            0.,NA,NA,"",   57.0628E-03,  -25.1693E-03,  -51.2120E-03,   4.68426E-03
C:/temp/dataset/8/7_36.odb,Step-1,Increment      1: Step Time =    1.000,"PART-1-1",           597,          -15.,        -21.25,            0.,NA,NA,"",   53.4475E-03,  -28.2623E-03,  -45.3638E-03,   4.05477E-03
C:/temp/dataset/8/7_36.odb,Step-1,Increment      1: Step Time =    1.000,"PART-1-1",           598,      -11.2673,      -23.1539,            0.,NA,NA,"",   41.4483E-03,  -17.9603E-03,  -37.3549E-03,   6.74565E-03
C:/temp/dataset/8/7_36.odb,Step-1,Increment      1: Step Time =    1.000,"PART-1-1",           599,      -10.1366,      -23.6180,            0.,NA,NA,"",   37.3835E-03,  -13.8447E-03,  -34.7253E-03,   7.19001E-03
C:/temp/dataset/8/7_36.odb,Step-1,Increment      1: Step Time =    1.000,"PART-1-1",           600,      -9.65781,      -21.9912,            0.,NA,NA,"",   47.5935E-03,  -14.3699E-03,  -45.3723E-03,   7.40683E-03
C:/temp/dataset/8/7_36.odb,Step-1,Increment      1: Step Time =    1.000,"PART-1-1",           601,      -10.7884,      -21.5271,            0.,NA,NA,"",   50.8021E-03,  -18.0219E-03,  -47.4981E-03,   6.88340E-03
C:/temp/dataset/8/7_36.odb,Step-1,Increment      1: Step Time =    1.000,"PART-1-1",           602,          -15.,        -28.75,            0.,NA,NA,"",   14.7642E-03,  -10.9991E-03,  -9.84891E-03,   8.13869E-03
C:/temp/dataset/8/7_36.odb,Step-1,Increment      1: Step Time =    1.000,"PART-1-1",           603,        -13.75,          -30.,            0.,NA,NA,"",            0.,  -1.39225E-39,  -11.3783E-39,   8.25195E-03
C:/temp/dataset/8/7_36.odb,Step-1,Increment      1: Step Time =    1.000,"PART-1-1",           604,      -2.48436,      -28.8316,            0.,NA,NA,"",   2.77992E-03,   328.217E-06,  -2.76047E-03,   3.15303E-03
C:/temp/dataset/8/7_36.odb,Step-1,Increment      1: Step Time =    1.000,"PART-1-1",           605,      -3.66464,      -27.6979,            0.,NA,NA,"",   6.24494E-03,   1.23342E-03,  -6.12192E-03,   3.58072E-03
C:/temp/dataset/8/7_36.odb,Step-1,Increment      1: Step Time =    1.000,"PART-1-1",           606,         -3.75,          -30.,            0.,NA,NA,"",            0.,   553.370E-42,  -6.95990E-39,   3.63160E-03
C:/temp/dataset/8/7_36.odb,Step-1,Increment      1: Step Time =    1.000,"PART-1-1",           607,      -3.65817,      -25.2536,            0.,NA,NA,"",   12.8332E-03,   2.78005E-03,  -12.5284E-03,   4.23085E-03
C:/temp/dataset/8/7_36.odb,Step-1,Increment      1: Step Time =    1.000,"PART-1-1",           608,      -2.51119,      -23.8961,            0.,NA,NA,"",   12.2391E-03,   4.44065E-03,  -11.4051E-03,   3.93805E-03
C:/temp/dataset/8/7_36.odb,Step-1,Increment      1: Step Time =    1.000,"PART-1-1",           609,      -3.67574,      -22.6579,            0.,NA,NA,"",   21.5396E-03,   5.46973E-03,  -20.8336E-03,   5.69060E-03
C:/temp/dataset/8/7_36.odb,Step-1,Increment      1: Step Time =    1.000,"PART-1-1",           610,      -1.29318,      -22.5899,            0.,NA,NA,"",   10.2920E-03,   5.13518E-03,  -8.91938E-03,   2.57681E-03
C:/temp/dataset/8/7_36.odb,Step-1,Increment      1: Step Time =    1.000,"PART-1-1",           611,  -38.5445E-03,      -21.2879,            0.,NA,NA,"",   11.6789E-03,   7.81883E-03,  -8.67539E-03,   2.10724E-03
C:/temp/dataset/8/7_36.odb,Step-1,Increment      1: Step Time =    1.000,"PART-1-1",           612,         -1.25,          -20.,            0.,NA,NA,"",   11.8229E-03,   4.28551E-03,  -11.0188E-03,   4.12126E-03
C:/temp/dataset/8/7_36.odb,Step-1,Increment      1: Step Time =    1.000,"PART-1-1",           613,      -2.50464,      -21.3020,            0.,NA,NA,"",   15.5473E-03,   4.97552E-03,  -14.7296E-03,   2.03004E-03
C:/temp/dataset/8/7_36.odb,Step-1,Increment      1: Step Time =    1.000,"PART-1-1",           614,       6.00193,      -26.4828,            0.,NA,NA,"",   25.9694E-03,  -2.30550E-03,  -25.8668E-03,   9.82179E-03
C:/temp/dataset/8/7_36.odb,Step-1,Increment      1: Step Time =    1.000,"PART-1-1",           615,       6.71688,      -27.7553,            0.,NA,NA,"",   17.6229E-03,  -2.43535E-03,  -17.4538E-03,   9.97345E-03
C:/temp/dataset/8/7_36.odb,Step-1,Increment      1: Step Time =    1.000,"PART-1-1",           616,       8.27191,      -26.8508,            0.,NA,NA,"",   31.2381E-03,   4.27496E-03,  -30.9442E-03,   12.8298E-03
C:/temp/dataset/8/7_36.odb,Step-1,Increment      1: Step Time =    1.000,"PART-1-1",           617,       7.55696,      -25.5783,            0.,NA,NA,"",   42.8449E-03,   6.15045E-03,  -42.4011E-03,   12.7699E-03
C:/temp/dataset/8/7_36.odb,Step-1,Increment      1: Step Time =    1.000,"PART-1-1",           618,       1.28220,      -22.6790,            0.,NA,NA,"",   12.7268E-03,   3.70480E-03,  -12.1756E-03,   1.72452E-03
C:/temp/dataset/8/7_36.odb,Step-1,Increment      1: Step Time =    1.000,"PART-1-1",           619,       2.57074,      -21.3912,            0.,NA,NA,"",   25.4847E-03,   11.0101E-03,  -22.9836E-03,   2.33312E-03
C:/temp/dataset/8/7_36.odb,Step-1,Increment      1: Step Time =    1.000,"PART-1-1",           620,          1.25,          -20.,            0.,NA,NA,"",   22.6767E-03,   17.1650E-03,  -14.8189E-03,   5.14336E-03
C:/temp/dataset/8/7_36.odb,Step-1,Increment      1: Step Time =    1.000,"PART-1-1",           621,       2.23882,      -25.9818,            0.,NA,NA,"",   12.5261E-03,  -4.61976E-03,  -11.6430E-03,   4.16828E-03
C:/temp/dataset/8/7_36.odb,Step-1,Increment      1: Step Time =    1.000,"PART-1-1",           622,       3.60539,      -25.7966,            0.,NA,NA,"",   18.9361E-03,  -4.83846E-03,  -18.3075E-03,   6.37113E-03
C:/temp/dataset/8/7_36.odb,Step-1,Increment      1: Step Time =    1.000,"PART-1-1",           623,       3.51945,      -23.6994,            0.,NA,NA,"",   27.0136E-03,  -396.359E-06,  -27.0106E-03,   6.15195E-03
C:/temp/dataset/8/7_36.odb,Step-1,Increment      1: Step Time =    1.000,"PART-1-1",           624,       2.15288,      -23.8846,            0.,NA,NA,"",   15.4293E-03,  -634.698E-06,  -15.4163E-03,   3.31478E-03
C:/temp/dataset/8/7_36.odb,Step-1,Increment      1: Step Time =    1.000,"PART-1-1",           625,       7.70422,      -28.9586,            0.,NA,NA,"",   8.69274E-03,  -1.27441E-03,  -8.59882E-03,   10.6248E-03
C:/temp/dataset/8/7_36.odb,Step-1,Increment      1: Step Time =    1.000,"PART-1-1",           626,       5.26266,      -28.7967,            0.,NA,NA,"",   8.05401E-03,  -3.70740E-03,  -7.14998E-03,   7.94535E-03
C:/temp/dataset/8/7_36.odb,Step-1,Increment      1: Step Time =    1.000,"PART-1-1",           627,          6.25,          -30.,            0.,NA,NA,"",            0.,  -2.38114E-39,  -16.3200E-39,   8.74931E-03
C:/temp/dataset/8/7_36.odb,Step-1,Increment      1: Step Time =    1.000,"PART-1-1",           628,       12.0997,      -20.6264,            0.,NA,NA,"",   161.349E-03,   73.3485E-03,  -143.713E-03,   17.4997E-03
C:/temp/dataset/8/7_36.odb,Step-1,Increment      1: Step Time =    1.000,"PART-1-1",           629,       11.2927,      -21.6255,            0.,NA,NA,"",   135.851E-03,   59.1269E-03,  -122.309E-03,   17.4599E-03
C:/temp/dataset/8/7_36.odb,Step-1,Increment      1: Step Time =    1.000,"PART-1-1",           630,       12.1482,      -22.5490,            0.,NA,NA,"",   127.679E-03,   58.5256E-03,  -113.475E-03,   17.7705E-03
C:/temp/dataset/8/7_36.odb,Step-1,Increment      1: Step Time =    1.000,"PART-1-1",           631,       12.9553,      -21.5498,            0.,NA,NA,"",   153.574E-03,   72.8823E-03,  -135.178E-03,   17.8353E-03
C:/temp/dataset/8/7_36.odb,Step-1,Increment      1: Step Time =    1.000,"PART-1-1",           632,         13.75,          -30.,            0.,NA,NA,"",            0.,   2.18977E-39,  -31.9910E-39,   21.9238E-03
C:/temp/dataset/8/7_36.odb,Step-1,Increment      1: Step Time =    1.000,"PART-1-1",           633,           15.,      -28.7625,            0.,NA,NA,"",   38.1775E-03,   26.9677E-03,  -27.0234E-03,   23.6581E-03
C:/temp/dataset/8/7_36.odb,Step-1,Increment      1: Step Time =    1.000,"PART-1-1",           634,       13.7776,      -27.6227,            0.,NA,NA,"",   48.9890E-03,   29.5518E-03,  -39.0719E-03,   19.4752E-03
C:/temp/dataset/8/7_36.odb,Step-1,Increment      1: Step Time =    1.000,"PART-1-1",           635,           15.,      -26.2875,            0.,NA,NA,"",   90.7267E-03,   53.6065E-03,  -73.1961E-03,   19.3533E-03
C:/temp/dataset/8/7_36.odb,Step-1,Increment      1: Step Time =    1.000,"PART-1-1",           636,       13.5918,      -25.0908,            0.,NA,NA,"",   96.5388E-03,   50.9435E-03,  -82.0031E-03,   18.4732E-03
C:/temp/dataset/8/7_36.odb,Step-1,Increment      1: Step Time =    1.000,"PART-1-1",           637,       12.3694,      -26.4260,            0.,NA,NA,"",   60.3781E-03,   30.1965E-03,  -52.2847E-03,   18.2760E-03
C:/temp/dataset/8/7_36.odb,Step-1,Increment      1: Step Time =    1.000,"PART-1-1",           638,       13.9605,      -22.6420,            0.,NA,NA,"",   144.369E-03,   72.5117E-03,  -124.838E-03,   18.1179E-03
C:/temp/dataset/8/7_36.odb,Step-1,Increment      1: Step Time =    1.000,"PART-1-1",           639,       12.5523,      -23.9204,            0.,NA,NA,"",   107.102E-03,   51.2025E-03,  -94.0701E-03,   18.1728E-03
C:/temp/dataset/8/7_36.odb,Step-1,Increment      1: Step Time =    1.000,"PART-1-1",           640,           15.,      -23.8125,            0.,NA,NA,"",   134.461E-03,   72.1726E-03,  -113.450E-03,   18.3383E-03
C:/temp/dataset/8/7_36.odb,Step-1,Increment      1: Step Time =    1.000,"PART-1-1",           641,           15.,      -21.3375,            0.,NA,NA,"",   178.881E-03,   91.0823E-03,  -153.956E-03,   17.9993E-03
C:/temp/dataset/8/7_36.odb,Step-1,Increment      1: Step Time =    1.000,"PART-1-1",           642,       7.29123,      -18.3998,            0.,NA,NA,"",   149.225E-03,   56.9443E-03,  -137.932E-03,   16.0408E-03
C:/temp/dataset/8/7_36.odb,Step-1,Increment      1: Step Time =    1.000,"PART-1-1",           643,       6.16190,      -17.3915,            0.,NA,NA,"",   153.357E-03,   54.4566E-03,  -143.363E-03,   18.4339E-03
C:/temp/dataset/8/7_36.odb,Step-1,Increment      1: Step Time =    1.000,"PART-1-1",           644,            5.,        -18.75,            0.,NA,NA,"",   115.682E-03,   37.6056E-03,  -109.399E-03,   22.7401E-03
C:/temp/dataset/8/7_36.odb,Step-1,Increment      1: Step Time =    1.000,"PART-1-1",           645,       6.12933,      -19.7583,            0.,NA,NA,"",   113.613E-03,   41.4676E-03,  -105.775E-03,   17.7936E-03
C:/temp/dataset/8/7_36.odb,Step-1,Increment      1: Step Time =    1.000,"PART-1-1",           646,       9.51257,      -18.2945,            0.,NA,NA,"",   175.391E-03,   72.2548E-03,  -159.817E-03,   16.7067E-03
C:/temp/dataset/8/7_36.odb,Step-1,Increment      1: Step Time =    1.000,"PART-1-1",           647,       10.1101,      -19.3444,            0.,NA,NA,"",   163.752E-03,   68.6045E-03,  -148.688E-03,   16.9165E-03
C:/temp/dataset/8/7_36.odb,Step-1,Increment      1: Step Time =    1.000,"PART-1-1",           648,       11.5966,      -18.6396,            0.,NA,NA,"",   190.916E-03,   84.9090E-03,  -170.995E-03,   17.2868E-03
C:/temp/dataset/8/7_36.odb,Step-1,Increment      1: Step Time =    1.000,"PART-1-1",           649,       10.5568,      -11.7080,            0.,NA,NA,"",   299.071E-03,   123.375E-03,  -272.437E-03,   17.9329E-03
C:/temp/dataset/8/7_36.odb,Step-1,Increment      1: Step Time =    1.000,"PART-1-1",           650,       11.5580,      -12.7427,            0.,NA,NA,"",   292.377E-03,   124.634E-03,  -264.481E-03,   18.1251E-03
C:/temp/dataset/8/7_36.odb,Step-1,Increment      1: Step Time =    1.000,"PART-1-1",           651,       12.7592,      -11.5531,            0.,NA,NA,"",   326.984E-03,   142.396E-03,  -294.350E-03,   18.5440E-03
C:/temp/dataset/8/7_36.odb,Step-1,Increment      1: Step Time =    1.000,"PART-1-1",           652,       5.97400,      -7.48832,            0.,NA,NA,"",   320.665E-03,   121.125E-03,  -296.909E-03,   16.2887E-03
C:/temp/dataset/8/7_36.odb,Step-1,Increment      1: Step Time =    1.000,"PART-1-1",           653,            5.,         -8.75,            0.,NA,NA,"",   287.905E-03,   102.432E-03,  -269.066E-03,   16.3753E-03
C:/temp/dataset/8/7_36.odb,Step-1,Increment      1: Step Time =    1.000,"PART-1-1",           654,       6.96466,      -8.62400,            0.,NA,NA,"",   311.306E-03,   118.305E-03,  -287.950E-03,   16.4395E-03
C:/temp/dataset/8/7_36.odb,Step-1,Increment      1: Step Time =    1.000,"PART-1-1",           655,       13.4824,      -5.05044,            0.,NA,NA,"",   460.047E-03,   199.191E-03,  -414.687E-03,   20.5683E-03
C:/temp/dataset/8/7_36.odb,Step-1,Increment      1: Step Time =    1.000,"PART-1-1",           656,           15.,      -6.28125,            0.,NA,NA,"",   454.837E-03,   202.187E-03,  -407.427E-03,   21.3579E-03
C:/temp/dataset/8/7_36.odb,Step-1,Increment      1: Step Time =    1.000,"PART-1-1",           657,       12.6591,      -1.12439,            0.,NA,NA,"",   532.745E-03,   238.893E-03,  -476.180E-03,   20.3145E-03
C:/temp/dataset/8/7_36.odb,Step-1,Increment      1: Step Time =    1.000,"PART-1-1",           658,       13.8600,      -2.43742,            0.,NA,NA,"",   523.490E-03,   232.026E-03,  -469.261E-03,   21.7937E-03
C:/temp/dataset/8/7_36.odb,Step-1,Increment      1: Step Time =    1.000,"PART-1-1",           659,           15.,      -1.25625,            0.,NA,NA,"",   572.670E-03,   260.179E-03,  -510.155E-03,   23.4048E-03
C:/temp/dataset/8/7_36.odb,Step-1,Increment      1: Step Time =    1.000,"PART-1-1",           660,       5.30074,       3.65708,            0.,NA,NA,"",   488.570E-03,   259.446E-03,  -413.990E-03,   15.0376E-03
C:/temp/dataset/8/7_36.odb,Step-1,Increment      1: Step Time =    1.000,"PART-1-1",           661,       7.62947,       4.43985,            0.,NA,NA,"",   572.518E-03,   305.953E-03,  -483.911E-03,   19.6520E-03
C:/temp/dataset/8/7_36.odb,Step-1,Increment      1: Step Time =    1.000,"PART-1-1",           662,       6.09164,       5.20441,            0.,NA,NA,"",   558.019E-03,   313.358E-03,  -461.727E-03,   18.3244E-03
C:/temp/dataset/8/7_36.odb,Step-1,Increment      1: Step Time =    1.000,"PART-1-1",           663,       10.7729,       2.25312,            0.,NA,NA,"",   578.868E-03,   283.141E-03,  -504.896E-03,   19.2014E-03
C:/temp/dataset/8/7_36.odb,Step-1,Increment      1: Step Time =    1.000,"PART-1-1",           664,       10.9515,       3.76013,            0.,NA,NA,"",   622.432E-03,   319.774E-03,  -534.009E-03,   19.3882E-03
C:/temp/dataset/8/7_36.odb,Step-1,Increment      1: Step Time =    1.000,"PART-1-1",           665,       8.98494,       4.06074,            0.,NA,NA,"",   591.151E-03,   308.810E-03,  -504.079E-03,   19.0210E-03
C:/temp/dataset/8/7_36.odb,Step-1,Increment      1: Step Time =    1.000,"PART-1-1",           666,           15.,       8.66250,            0.,NA,NA,"",   839.209E-03,   474.342E-03,  -692.294E-03,   13.7006E-03
C:/temp/dataset/8/7_36.odb,Step-1,Increment      1: Step Time =    1.000,"PART-1-1",           667,       13.0810,       8.82259,            0.,NA,NA,"",   802.518E-03,   466.180E-03,  -653.232E-03,   15.5915E-03
C:/temp/dataset/8/7_36.odb,Step-1,Increment      1: Step Time =    1.000,"PART-1-1",           668,       7.75239,       11.0444,            0.,NA,NA,"",   769.835E-03,   478.780E-03,  -602.840E-03,   21.7023E-03
C:/temp/dataset/8/7_36.odb,Step-1,Increment      1: Step Time =    1.000,"PART-1-1",           669,       6.56216,       12.4157,            0.,NA,NA,"",   788.209E-03,   495.920E-03,  -612.648E-03,   24.7969E-03
C:/temp/dataset/8/7_36.odb,Step-1,Increment      1: Step Time =    1.000,"PART-1-1",           670,            5.,         11.25,            0.,NA,NA,"",   718.125E-03,   454.057E-03,  -556.359E-03,   26.3365E-03
C:/temp/dataset/8/7_36.odb,Step-1,Increment      1: Step Time =    1.000,"PART-1-1",           671,       10.9687,       10.2381,            0.,NA,NA,"",   801.904E-03,   486.309E-03,  -637.616E-03,   17.4897E-03
C:/temp/dataset/8/7_36.odb,Step-1,Increment      1: Step Time =    1.000,"PART-1-1",           672,       9.89393,       9.91282,            0.,NA,NA,"",   775.165E-03,   470.399E-03,  -616.122E-03,   18.6238E-03
C:/temp/dataset/8/7_36.odb,Step-1,Increment      1: Step Time =    1.000,"PART-1-1",           673,       10.3396,       8.57072,            0.,NA,NA,"",   745.618E-03,   440.185E-03,  -601.817E-03,   18.3991E-03
C:/temp/dataset/8/7_36.odb,Step-1,Increment      1: Step Time =    1.000,"PART-1-1",           674,       11.4143,       8.89605,            0.,NA,NA,"",   773.728E-03,   456.484E-03,  -624.722E-03,   17.2968E-03
C:/temp/dataset/8/7_36.odb,Step-1,Increment      1: Step Time =    1.000,"PART-1-1",           675,       12.6608,       18.9269,            0.,NA,NA,"",   980.564E-03,   625.727E-03,  -754.965E-03,   9.23657E-03
C:/temp/dataset/8/7_36.odb,Step-1,Increment      1: Step Time =    1.000,"PART-1-1",           676,       13.7941,       17.5480,            0.,NA,NA,"",   973.311E-03,   621.808E-03,  -748.791E-03,   6.81547E-03
C:/temp/dataset/8/7_36.odb,Step-1,Increment      1: Step Time =    1.000,"PART-1-1",           677,           15.,       18.6938,            0.,NA,NA,"",   987.695E-03,   631.066E-03,  -759.800E-03,   2.98563E-03
C:/temp/dataset/8/7_36.odb,Step-1,Increment      1: Step Time =    1.000,"PART-1-1",           678,       11.2471,       27.2214,            0.,NA,NA,"",       1.01330,   589.293E-03,  -824.322E-03,   5.87903E-03
C:/temp/dataset/8/7_36.odb,Step-1,Increment      1: Step Time =    1.000,"PART-1-1",           679,       12.5374,       28.7023,            0.,NA,NA,"",   978.368E-03,   562.595E-03,  -800.431E-03,   823.428E-06
C:/temp/dataset/8/7_36.odb,Step-1,Increment      1: Step Time =    1.000,"PART-1-1",           680,         11.25,           30.,            0.,NA,NA,"",   984.886E-03,   535.845E-03,  -826.360E-03,   1.56593E-03
C:/temp/dataset/8/7_36.odb,Step-1,Increment      1: Step Time =    1.000,"PART-1-1",           681,       8.10754,       23.1840,            0.,NA,NA,"",       1.03823,   589.945E-03,  -854.332E-03,   27.7398E-03
C:/temp/dataset/8/7_36.odb,Step-1,Increment      1: Step Time =    1.000,"PART-1-1",           682,       9.64263,       22.1457,            0.,NA,NA,"",       1.01308,   608.671E-03,  -809.841E-03,   19.7599E-03
C:/temp/dataset/8/7_36.odb,Step-1,Increment      1: Step Time =    1.000,"PART-1-1",           683,           15.,       28.7437,            0.,NA,NA,"",   945.271E-03,   561.573E-03,  -760.377E-03,   833.176E-06
C:/temp/dataset/8/7_36.odb,Step-1,Increment      1: Step Time =    1.000,"PART-1-1",           684,         13.75,           30.,            0.,NA,NA,"",   949.557E-03,   540.263E-03,  -780.881E-03,   836.249E-06
C:/temp/dataset/8/7_36.odb,Step-1,Increment      1: Step Time =    1.000,"PART-1-1",           685,       13.7874,       27.4460,            0.,NA,NA,"",   974.127E-03,   583.680E-03,  -779.898E-03,   802.396E-06
C:/temp/dataset/8/7_36.odb,Step-1,Increment      1: Step Time =    1.000,"PART-1-1",           686,       7.12499,       6.45847,            0.,NA,NA,"",   620.422E-03,   357.810E-03,  -506.849E-03,   18.3151E-03
C:/temp/dataset/8/7_36.odb,Step-1,Increment      1: Step Time =    1.000,"PART-1-1",           687,            5.,          6.25,            0.,NA,NA,"",   559.053E-03,   334.869E-03,  -447.664E-03,   22.1768E-03
C:/temp/dataset/8/7_36.odb,Step-1,Increment      1: Step Time =    1.000,"PART-1-1",           688,       9.07752,      -27.9736,            0.,NA,NA,"",   20.6034E-03,   3.25140E-03,  -20.3452E-03,   12.8592E-03
C:/temp/dataset/8/7_36.odb,Step-1,Increment      1: Step Time =    1.000,"PART-1-1",           689,          8.75,          -30.,            0.,NA,NA,"",            0.,  -624.305E-42,  -21.2507E-39,   11.1987E-03
C:/temp/dataset/8/7_36.odb,Step-1,Increment      1: Step Time =    1.000,"PART-1-1",           690,           15.,       3.71250,            0.,NA,NA,"",   708.333E-03,   354.820E-03,  -613.057E-03,   20.6615E-03
C:/temp/dataset/8/7_36.odb,Step-1,Increment      1: Step Time =    1.000,"PART-1-1",           691,       12.3996,       4.14954,            0.,NA,NA,"",   662.179E-03,   342.168E-03,  -566.924E-03,   19.0460E-03
C:/temp/dataset/8/7_36.odb,Step-1,Increment      1: Step Time =    1.000,"PART-1-1",           692,       9.86779,       6.75734,            0.,NA,NA,"",   685.392E-03,   388.587E-03,  -564.590E-03,   18.7880E-03
C:/temp/dataset/8/7_36.odb,Step-1,Increment      1: Step Time =    1.000,"PART-1-1",           693,       8.81759,       6.48028,            0.,NA,NA,"",   657.006E-03,   372.473E-03,  -541.221E-03,   18.9634E-03
C:/temp/dataset/8/7_36.odb,Step-1,Increment      1: Step Time =    1.000,"PART-1-1",           694,       9.27664,       5.21437,            0.,NA,NA,"",   629.616E-03,   341.980E-03,  -528.646E-03,   19.2058E-03
C:/temp/dataset/8/7_36.odb,Step-1,Increment      1: Step Time =    1.000,"PART-1-1",           695,       10.3268,       5.49143,            0.,NA,NA,"",   658.202E-03,   358.555E-03,  -551.968E-03,   18.9718E-03
C:/temp/dataset/8/7_36.odb,Step-1,Increment      1: Step Time =    1.000,"PART-1-1",           696,   710.804E-03,      -25.0300,            0.,NA,NA,"",   8.79752E-03,  -1.41435E-03,  -8.68309E-03,   2.83195E-03
C:/temp/dataset/8/7_36.odb,Step-1,Increment      1: Step Time =    1.000,"PART-1-1",           697,  -159.879E-03,      -23.8244,            0.,NA,NA,"",   8.23381E-03,   1.98152E-03,  -7.99182E-03,   1.98305E-03
C:/temp/dataset/8/7_36.odb,Step-1,Increment      1: Step Time =    1.000,"PART-1-1",           698,         -3.75,          -20.,            0.,NA,NA,"",   25.5984E-03,  -2.41501E-03,  -25.4843E-03,   5.14665E-03
C:/temp/dataset/8/7_36.odb,Step-1,Increment      1: Step Time =    1.000,"PART-1-1",           699,      -4.92110,      -21.3559,            0.,NA,NA,"",   38.1759E-03,   2.89808E-03,  -38.0657E-03,   10.2597E-03
C:/temp/dataset/8/7_36.odb,Step-1,Increment      1: Step Time =    1.000,"PART-1-1",           700,         -1.25,          -30.,            0.,NA,NA,"",            0.,  -362.889E-42,  -6.34892E-39,   3.36713E-03
C:/temp/dataset/8/7_36.odb,Step-1,Increment      1: Step Time =    1.000,"PART-1-1",           701,      -1.24185,      -27.5805,            0.,NA,NA,"",   4.76048E-03,  -543.184E-06,  -4.72939E-03,   3.09082E-03
C:/temp/dataset/8/7_36.odb,Step-1,Increment      1: Step Time =    1.000,"PART-1-1",           702,      -7.47566,      -11.3800,            0.,NA,NA,"",   142.258E-03,   42.5959E-03,  -135.732E-03,   9.68532E-03
C:/temp/dataset/8/7_36.odb,Step-1,Increment      1: Step Time =    1.000,"PART-1-1",           703,           -5.,        -11.25,            0.,NA,NA,"",   166.000E-03,   55.1526E-03,  -156.570E-03,   11.0236E-03
C:/temp/dataset/8/7_36.odb,Step-1,Increment      1: Step Time =    1.000,"PART-1-1",           704,      -6.22639,      -10.0808,            0.,NA,NA,"",   168.049E-03,   59.7734E-03,  -157.060E-03,   10.0909E-03
C:/temp/dataset/8/7_36.odb,Step-1,Increment      1: Step Time =    1.000,"PART-1-1",           705,          -15.,        -13.75,            0.,NA,NA,"",   71.2564E-03,  -716.032E-06,  -71.2528E-03,   4.49089E-03
C:/temp/dataset/8/7_36.odb,Step-1,Increment      1: Step Time =    1.000,"PART-1-1",           706,      -12.5127,      -13.8329,            0.,NA,NA,"",   86.6307E-03,   4.66955E-03,  -86.5048E-03,   6.41823E-03
C:/temp/dataset/8/7_36.odb,Step-1,Increment      1: Step Time =    1.000,"PART-1-1",           707,      -10.0964,       13.7974,            0.,NA,NA,"",   369.199E-03,   210.728E-03,  -303.153E-03,   9.09884E-03
C:/temp/dataset/8/7_36.odb,Step-1,Increment      1: Step Time =    1.000,"PART-1-1",           708,      -8.82993,       12.5694,            0.,NA,NA,"",   375.494E-03,   203.894E-03,  -315.314E-03,   11.2918E-03
C:/temp/dataset/8/7_36.odb,Step-1,Increment      1: Step Time =    1.000,"PART-1-1",           709,          -15.,         16.25,            0.,NA,NA,"",   324.136E-03,   246.044E-03,  -211.012E-03,   5.79119E-03
C:/temp/dataset/8/7_36.odb,Step-1,Increment      1: Step Time =    1.000,"PART-1-1",           710,      -12.5888,       16.2424,            0.,NA,NA,"",   356.032E-03,   242.262E-03,  -260.897E-03,   2.68974E-03
C:/temp/dataset/8/7_36.odb,Step-1,Increment      1: Step Time =    1.000,"PART-1-1",           711,      -12.3835,       2.26488,            0.,NA,NA,"",   252.058E-03,   152.550E-03,  -200.653E-03,   8.89927E-03
C:/temp/dataset/8/7_36.odb,Step-1,Increment      1: Step Time =    1.000,"PART-1-1",           712,      -11.8224,   292.734E-03,            0.,NA,NA,"",   237.204E-03,   142.946E-03,  -189.294E-03,   8.91977E-03
C:/temp/dataset/8/7_36.odb,Step-1,Increment      1: Step Time =    1.000,"PART-1-1",           713,      -11.2102,       1.42259,            0.,NA,NA,"",   254.370E-03,   153.278E-03,  -203.002E-03,   8.92077E-03
C:/temp/dataset/8/7_36.odb,Step-1,Increment      1: Step Time =    1.000,"PART-1-1",           714,         -3.75,           -5.,            0.,NA,NA,"",   271.667E-03,   115.717E-03,  -245.789E-03,   2.62311E-03
C:/temp/dataset/8/7_36.odb,Step-1,Increment      1: Step Time =    1.000,"PART-1-1",           715,      -4.14675,      -2.41445,            0.,NA,NA,"",   285.390E-03,   149.568E-03,  -243.058E-03,   3.22786E-03
C:/temp/dataset/8/7_36.odb,Step-1,Increment      1: Step Time =    1.000,"PART-1-1",           716,          3.75,           -5.,            0.,NA,NA,"",   361.201E-03,   131.692E-03,  -336.338E-03,   4.69425E-03
C:/temp/dataset/8/7_36.odb,Step-1,Increment      1: Step Time =    1.000,"PART-1-1",           717,       4.88615,      -3.81221,            0.,NA,NA,"",   369.188E-03,   142.334E-03,  -340.647E-03,   10.2046E-03
C:/temp/dataset/8/7_36.odb,Step-1,Increment      1: Step Time =    1.000,"PART-1-1",           718,          3.75,            5.,            0.,NA,NA,"",   468.620E-03,   282.472E-03,  -373.918E-03,   10.9323E-03
C:/temp/dataset/8/7_36.odb,Step-1,Increment      1: Step Time =    1.000,"PART-1-1",           719,       2.57201,       3.72360,            0.,NA,NA,"",   422.218E-03,   245.524E-03,  -343.491E-03,   6.39951E-03
C:/temp/dataset/8/7_36.odb,Step-1,Increment      1: Step Time =    1.000,"PART-1-1",           720,       4.12275,       2.38068,            0.,NA,NA,"",   435.376E-03,   225.925E-03,  -372.170E-03,   7.28264E-03
C:/temp/dataset/8/7_36.odb,Step-1,Increment      1: Step Time =    1.000,"PART-1-1",           721,       1.34934,       2.46747,            0.,NA,NA,"",   386.547E-03,   217.768E-03,  -319.367E-03,   3.59032E-03
C:/temp/dataset/8/7_36.odb,Step-1,Increment      1: Step Time =    1.000,"PART-1-1",           722,          1.25,            5.,            0.,NA,NA,"",   415.502E-03,   258.161E-03,  -325.568E-03,   9.54312E-03
C:/temp/dataset/8/7_36.odb,Step-1,Increment      1: Step Time =    1.000,"PART-1-1",           723,          6.25,           30.,            0.,NA,NA,"",       1.17890,   548.797E-03,      -1.04337,   32.2153E-03
C:/temp/dataset/8/7_36.odb,Step-1,Increment      1: Step Time =    1.000,"PART-1-1",           724,       6.07120,       27.6569,            0.,NA,NA,"",       1.15751,   586.951E-03,  -997.660E-03,   32.1436E-03
C:/temp/dataset/8/7_36.odb,Step-1,Increment      1: Step Time =    1.000,"PART-1-1",           725,         -1.25,           30.,            0.,NA,NA,"",       1.08603,   708.875E-03,  -822.768E-03,   13.9730E-03
C:/temp/dataset/8/7_36.odb,Step-1,Increment      1: Step Time =    1.000,"PART-1-1",           726,      -1.39999,       27.3167,            0.,NA,NA,"",       1.00752,   579.946E-03,  -823.874E-03,   22.9468E-03
C:/temp/dataset/8/7_36.odb,Step-1,Increment      1: Step Time =    1.000,"PART-1-1",           727,         -3.75,           20.,            0.,NA,NA,"",   729.712E-03,   335.274E-03,  -648.128E-03,   14.0212E-03
C:/temp/dataset/8/7_36.odb,Step-1,Increment      1: Step Time =    1.000,"PART-1-1",           728,      -2.58930,       21.4512,            0.,NA,NA,"",   839.171E-03,   413.449E-03,  -730.251E-03,   14.4599E-03
C:/temp/dataset/8/7_36.odb,Step-1,Increment      1: Step Time =    1.000,"PART-1-1",           729,      -5.07231,       21.0171,            0.,NA,NA,"",   674.539E-03,   384.677E-03,  -554.099E-03,   25.4248E-03
C:/temp/dataset/8/7_36.odb,Step-1,Increment      1: Step Time =    1.000,"PART-1-1",           730,      -1.31658,       22.7626,            0.,NA,NA,"",   932.383E-03,   462.270E-03,  -809.719E-03,   18.3212E-03
C:/temp/dataset/8/7_36.odb,Step-1,Increment      1: Step Time =    1.000,"PART-1-1",           731,         -1.25,           20.,            0.,NA,NA,"",   873.057E-03,   365.714E-03,  -792.768E-03,   22.4436E-03
C:/temp/dataset/8/7_36.odb,Step-1,Increment      1: Step Time =    1.000,"PART-1-1",           732,  -730.264E-03,       25.0913,            0.,NA,NA,"",   997.611E-03,   517.681E-03,  -852.779E-03,   19.7944E-03
C:/temp/dataset/8/7_36.odb,Step-1,Increment      1: Step Time =    1.000,"PART-1-1",           733,      -2.17963,       23.9829,            0.,NA,NA,"",   912.296E-03,   491.201E-03,  -768.769E-03,   21.5503E-03
C:/temp/dataset/8/7_36.odb,Step-1,Increment      1: Step Time =    1.000,"PART-1-1",           734,       6.36136,       15.0582,            0.,NA,NA,"",   861.880E-03,   539.583E-03,  -672.076E-03,   27.8780E-03
C:/temp/dataset/8/7_36.odb,Step-1,Increment      1: Step Time =    1.000,"PART-1-1",           735,       7.68541,       16.4128,            0.,NA,NA,"",   914.350E-03,   573.501E-03,  -712.132E-03,   24.1730E-03
C:/temp/dataset/8/7_36.odb,Step-1,Increment      1: Step Time =    1.000,"PART-1-1",           736,            5.,         16.25,            0.,NA,NA,"",   873.733E-03,   535.741E-03,  -690.211E-03,   34.6279E-03
C:/temp/dataset/8/7_36.odb,Step-1,Increment      1: Step Time =    1.000,"PART-1-1",           737,      -10.0306,      -16.4562,            0.,NA,NA,"",   81.3964E-03,  -4.20897E-03,  -81.2875E-03,   7.80308E-03
C:/temp/dataset/8/7_36.odb,Step-1,Increment      1: Step Time =    1.000,"PART-1-1",           738,         -8.75,          -30.,            0.,NA,NA,"",            0.,  -608.329E-42,  -9.38783E-39,   4.98007E-03
C:/temp/dataset/8/7_36.odb,Step-1,Increment      1: Step Time =    1.000,"PART-1-1",           739,      -8.41046,      -27.7431,            0.,NA,NA,"",   10.1274E-03,  -2.52261E-03,  -9.80821E-03,   5.60777E-03
C:/temp/dataset/8/7_36.odb,Step-1,Increment      1: Step Time =    1.000,"PART-1-1",           740,       8.76042,      -4.14506,            0.,NA,NA,"",   406.748E-03,   167.925E-03,  -370.466E-03,   16.5396E-03
C:/temp/dataset/8/7_36.odb,Step-1,Increment      1: Step Time =    1.000,"PART-1-1",           741,       8.66903,      -5.72492,            0.,NA,NA,"",   378.807E-03,   153.745E-03,  -346.204E-03,   16.0539E-03
C:/temp/dataset/8/7_36.odb,Step-1,Increment      1: Step Time =    1.000,"PART-1-1",           742,            5.,        -13.75,            0.,NA,NA,"",   205.621E-03,   66.2829E-03,  -194.644E-03,   17.2819E-03
C:/temp/dataset/8/7_36.odb,Step-1,Increment      1: Step Time =    1.000,"PART-1-1",           743,       6.25554,      -14.9359,            0.,NA,NA,"",   197.382E-03,   68.5630E-03,  -185.091E-03,   17.8157E-03
C:/temp/dataset/8/7_36.odb,Step-1,Increment      1: Step Time =    1.000,"PART-1-1",           744,       7.64357,      -13.5439,            0.,NA,NA,"",   235.208E-03,   88.4112E-03,  -217.959E-03,   17.6236E-03
C:/temp/dataset/8/7_36.odb,Step-1,Increment      1: Step Time =    1.000,"PART-1-1",           745,       7.29012,      -20.5145,            0.,NA,NA,"",   114.948E-03,   40.3541E-03,  -107.632E-03,   16.2442E-03
C:/temp/dataset/8/7_36.odb,Step-1,Increment      1: Step Time =    1.000,"PART-1-1",           746,       5.05790,      -20.9179,            0.,NA,NA,"",   73.1560E-03,   19.5230E-03,  -70.5029E-03,   15.3164E-03
C:/temp/dataset/8/7_36.odb,Step-1,Increment      1: Step Time =    1.000,"PART-1-1",           747,       6.21870,      -21.6741,            0.,NA,NA,"",   81.5732E-03,   21.4519E-03,  -78.7020E-03,   15.7235E-03
C:/temp/dataset/8/7_36.odb,Step-1,Increment      1: Step Time =    1.000,"PART-1-1",           748,      -6.20775,      -20.1417,            0.,NA,NA,"",   57.8443E-03,  -6.05368E-03,  -57.5267E-03,   11.1780E-03
C:/temp/dataset/8/7_36.odb,Step-1,Increment      1: Step Time =    1.000,"PART-1-1",           749,      -7.26365,      -21.6027,            0.,NA,NA,"",   48.0690E-03,  -6.95716E-03,  -47.5629E-03,   8.78339E-03
C:/temp/dataset/8/7_36.odb,Step-1,Increment      1: Step Time =    1.000,"PART-1-1",           750,      -7.57540,       11.3077,            0.,NA,NA,"",   378.163E-03,   201.029E-03,  -320.303E-03,   12.7391E-03
C:/temp/dataset/8/7_36.odb,Step-1,Increment      1: Step Time =    1.000,"PART-1-1",           751,           -5.,         11.25,            0.,NA,NA,"",   408.042E-03,   217.202E-03,  -345.430E-03,   16.6181E-03
C:/temp/dataset/8/7_36.odb,Step-1,Increment      1: Step Time =    1.000,"PART-1-1",           752,          -15.,          8.75,            0.,NA,NA,"",   278.926E-03,   167.453E-03,  -223.067E-03,   2.92133E-03
C:/temp/dataset/8/7_36.odb,Step-1,Increment      1: Step Time =    1.000,"PART-1-1",           753,      -12.2946,       8.62536,            0.,NA,NA,"",   298.107E-03,   172.111E-03,  -243.404E-03,   7.19178E-03
C:/temp/dataset/8/7_36.odb,Step-1,Increment      1: Step Time =    1.000,"PART-1-1",           754,      -10.0522,       9.28504,            0.,NA,NA,"",   326.991E-03,   180.962E-03,  -272.353E-03,   9.57476E-03
C:/temp/dataset/8/7_36.odb,Step-1,Increment      1: Step Time =    1.000,"PART-1-1",           755,      -8.95993,       7.79922,            0.,NA,NA,"",   327.703E-03,   181.263E-03,  -273.007E-03,   10.0968E-03
C:/temp/dataset/8/7_36.odb,Step-1,Increment      1: Step Time =    1.000,"PART-1-1",           756,      -8.82890,       10.1599,            0.,NA,NA,"",   349.391E-03,   189.042E-03,  -293.832E-03,   10.7020E-03
C:/temp/dataset/8/7_36.odb,Step-1,Increment      1: Step Time =    1.000,"PART-1-1",           757,          -15.,          3.75,            0.,NA,NA,"",   245.869E-03,   148.686E-03,  -195.816E-03,   8.64589E-03
C:/temp/dataset/8/7_36.odb,Step-1,Increment      1: Step Time =    1.000,"PART-1-1",           758,      -12.9917,       3.46630,            0.,NA,NA,"",   257.542E-03,   155.336E-03,  -205.422E-03,   8.49725E-03
C:/temp/dataset/8/7_36.odb,Step-1,Increment      1: Step Time =    1.000,"PART-1-1",           759,          -15.,         -1.25,            0.,NA,NA,"",   191.196E-03,   116.891E-03,  -151.302E-03,   9.84962E-03
C:/temp/dataset/8/7_36.odb,Step-1,Increment      1: Step Time =    1.000,"PART-1-1",           760,      -12.5629,      -1.46967,            0.,NA,NA,"",   210.803E-03,   125.258E-03,  -169.553E-03,   8.69801E-03
C:/temp/dataset/8/7_36.odb,Step-1,Increment      1: Step Time =    1.000,"PART-1-1",           761,      -9.58670,      -7.04184,            0.,NA,NA,"",   171.133E-03,   77.1040E-03,  -152.779E-03,   7.96403E-03
C:/temp/dataset/8/7_36.odb,Step-1,Increment      1: Step Time =    1.000,"PART-1-1",           762,      -10.0087,      -5.60794,            0.,NA,NA,"",   183.896E-03,   91.6185E-03,  -159.448E-03,   8.05753E-03
C:/temp/dataset/8/7_36.odb,Step-1,Increment      1: Step Time =    1.000,"PART-1-1",           763,      -11.4598,      -6.08307,            0.,NA,NA,"",   165.595E-03,   81.3499E-03,  -144.236E-03,   7.89437E-03
C:/temp/dataset/8/7_36.odb,Step-1,Increment      1: Step Time =    1.000,"PART-1-1",           764,           -5.,         -8.75,            0.,NA,NA,"",   196.358E-03,   77.8055E-03,  -180.285E-03,   10.4692E-03
C:/temp/dataset/8/7_36.odb,Step-1,Increment      1: Step Time =    1.000,"PART-1-1",           765,      -6.19611,      -7.65783,            0.,NA,NA,"",   197.369E-03,   82.5471E-03,  -179.278E-03,   9.52328E-03
C:/temp/dataset/8/7_36.odb,Step-1,Increment      1: Step Time =    1.000,"PART-1-1",           766,      -2.54776,      -1.24063,            0.,NA,NA,"",   313.116E-03,   164.918E-03,  -266.165E-03,   1.10695E-03
C:/temp/dataset/8/7_36.odb,Step-1,Increment      1: Step Time =    1.000,"PART-1-1",           767,       3.62717,       25.2502,            0.,NA,NA,"",       1.11851,   543.811E-03,  -977.410E-03,   24.4222E-03
C:/temp/dataset/8/7_36.odb,Step-1,Increment      1: Step Time =    1.000,"PART-1-1",           768,       4.81765,       26.4923,            0.,NA,NA,"",       1.15052,   571.837E-03,  -998.352E-03,   31.1049E-03
C:/temp/dataset/8/7_36.odb,Step-1,Increment      1: Step Time =    1.000,"PART-1-1",           769,       2.47493,       26.4272,            0.,NA,NA,"",       1.13358,   552.035E-03,  -990.079E-03,   23.2042E-03
C:/temp/dataset/8/7_36.odb,Step-1,Increment      1: Step Time =    1.000,"PART-1-1",           770,       12.1711,       7.92225,            0.,NA,NA,"",   761.294E-03,   437.065E-03,  -623.332E-03,   17.1590E-03
C:/temp/dataset/8/7_36.odb,Step-1,Increment      1: Step Time =    1.000,"PART-1-1",           771,       10.9972,       7.23987,            0.,NA,NA,"",   720.394E-03,   410.419E-03,  -592.051E-03,   18.2350E-03
C:/temp/dataset/8/7_36.odb,Step-1,Increment      1: Step Time =    1.000,"PART-1-1",           772,       11.7750,       5.88084,            0.,NA,NA,"",   697.379E-03,   380.844E-03,  -584.204E-03,   18.5644E-03
C:/temp/dataset/8/7_36.odb,Step-1,Increment      1: Step Time =    1.000,"PART-1-1",           773,       2.56868,       1.19679,            0.,NA,NA,"",   391.935E-03,   200.809E-03,  -336.584E-03,   2.66031E-03
C:/temp/dataset/8/7_36.odb,Step-1,Increment      1: Step Time =    1.000,"PART-1-1",           774,      -8.87516,       6.40184,            0.,NA,NA,"",   318.442E-03,   179.885E-03,  -262.767E-03,   10.4263E-03
C:/temp/dataset/8/7_36.odb,Step-1,Increment      1: Step Time =    1.000,"PART-1-1",           775,      -9.21453,       4.85504,            0.,NA,NA,"",   303.674E-03,   176.440E-03,  -247.158E-03,   10.3250E-03
C:/temp/dataset/8/7_36.odb,Step-1,Increment      1: Step Time =    1.000,"PART-1-1",           776,      -7.77845,       4.46010,            0.,NA,NA,"",   314.663E-03,   184.100E-03,  -255.187E-03,   10.9006E-03
C:/temp/dataset/8/7_36.odb,Step-1,Increment      1: Step Time =    1.000,"PART-1-1",           777,      -7.43909,       6.00690,            0.,NA,NA,"",   329.270E-03,   186.887E-03,  -271.094E-03,   10.6172E-03
C:/temp/dataset/8/7_36.odb,Step-1,Increment      1: Step Time =    1.000,"PART-1-1",           778,      -11.3073,       27.9110,            0.,NA,NA,"",   712.881E-03,   639.072E-03,  -315.891E-03,   1.53094E-03
C:/temp/dataset/8/7_36.odb,Step-1,Increment      1: Step Time =    1.000,"PART-1-1",           779,      -10.0807,       29.0541,            0.,NA,NA,"",   780.695E-03,   688.259E-03,  -368.489E-03,   1.89000E-03
C:/temp/dataset/8/7_36.odb,Step-1,Increment      1: Step Time =    1.000,"PART-1-1",           780,        -11.25,           30.,            0.,NA,NA,"",   795.178E-03,   727.355E-03,  -321.347E-03,   1.81721E-03
C:/temp/dataset/8/7_36.odb,Step-1,Increment      1: Step Time =    1.000,"PART-1-1",           781,          -15.,         23.75,            0.,NA,NA,"",   501.376E-03,   471.035E-03,  -171.765E-03,   4.30439E-03
C:/temp/dataset/8/7_36.odb,Step-1,Increment      1: Step Time =    1.000,"PART-1-1",           782,      -12.0927,       23.7977,            0.,NA,NA,"",   545.421E-03,   468.271E-03,  -279.652E-03,   2.19511E-03
C:/temp/dataset/8/7_36.odb,Step-1,Increment      1: Step Time =    1.000,"PART-1-1",           783,      -8.63837,       22.0170,            0.,NA,NA,"",   568.133E-03,   402.756E-03,  -400.704E-03,   8.19046E-03
C:/temp/dataset/8/7_36.odb,Step-1,Increment      1: Step Time =    1.000,"PART-1-1",           784,      -9.90203,       20.9758,            0.,NA,NA,"",   504.179E-03,   364.033E-03,  -348.821E-03,   4.80785E-03
C:/temp/dataset/8/7_36.odb,Step-1,Increment      1: Step Time =    1.000,"PART-1-1",           785,      -7.50941,       20.8584,            0.,NA,NA,"",   565.851E-03,   362.641E-03,  -434.372E-03,   11.4503E-03
C:/temp/dataset/8/7_36.odb,Step-1,Increment      1: Step Time =    1.000,"PART-1-1",           786,      -11.2484,       19.8991,            0.,NA,NA,"",   446.508E-03,   329.331E-03,  -301.514E-03,   2.52415E-03
C:/temp/dataset/8/7_36.odb,Step-1,Increment      1: Step Time =    1.000,"PART-1-1",           787,      -11.3362,       17.4609,            0.,NA,NA,"",   395.982E-03,   266.253E-03,  -293.106E-03,   3.97718E-03
C:/temp/dataset/8/7_36.odb,Step-1,Increment      1: Step Time =    1.000,"PART-1-1",           788,      -6.30996,       21.9748,            0.,NA,NA,"",   649.192E-03,   411.056E-03,  -502.477E-03,   18.1288E-03
C:/temp/dataset/8/7_36.odb,Step-1,Increment      1: Step Time =    1.000,"PART-1-1",           789,      -2.24269,       26.0758,            0.,NA,NA,"",   945.712E-03,   547.426E-03,  -771.165E-03,   20.5599E-03
C:/temp/dataset/8/7_36.odb,Step-1,Increment      1: Step Time =    1.000,"PART-1-1",           790,       12.7358,       26.1633,            0.,NA,NA,"",   997.399E-03,   602.060E-03,  -795.191E-03,   2.87350E-03
C:/temp/dataset/8/7_36.odb,Step-1,Increment      1: Step Time =    1.000,"PART-1-1",           791,       13.9485,       24.9485,            0.,NA,NA,"",   990.834E-03,   615.114E-03,  -776.780E-03,   1.91593E-03
C:/temp/dataset/8/7_36.odb,Step-1,Increment      1: Step Time =    1.000,"PART-1-1",           792,           15.,       26.2313,            0.,NA,NA,"",   971.349E-03,   600.452E-03,  -763.529E-03,   1.87074E-03
C:/temp/dataset/8/7_36.odb,Step-1,Increment      1: Step Time =    1.000,"PART-1-1",           793,         -8.75,           30.,            0.,NA,NA,"",   847.264E-03,   730.988E-03,  -428.382E-03,   2.61551E-03
C:/temp/dataset/8/7_36.odb,Step-1,Increment      1: Step Time =    1.000,"PART-1-1",           794,      -8.99948,       28.0877,            0.,NA,NA,"",   767.522E-03,   646.540E-03,  -413.614E-03,   1.10361E-03
C:/temp/dataset/8/7_36.odb,Step-1,Increment      1: Step Time =    1.000,"PART-1-1",           795,      -11.0605,       7.76300,            0.,NA,NA,"",   305.073E-03,   173.340E-03,  -251.044E-03,   8.87104E-03
C:/temp/dataset/8/7_36.odb,Step-1,Increment      1: Step Time =    1.000,"PART-1-1",           796,      -9.90520,       2.86353,            0.,NA,NA,"",   280.257E-03,   167.131E-03,  -224.969E-03,   9.55677E-03
C:/temp/dataset/8/7_36.odb,Step-1,Increment      1: Step Time =    1.000,"PART-1-1",           797,      -11.2331,       2.92838,            0.,NA,NA,"",   268.252E-03,   160.756E-03,  -214.748E-03,   9.13881E-03
C:/temp/dataset/8/7_36.odb,Step-1,Increment      1: Step Time =    1.000,"PART-1-1",           798,      -9.88229,       1.35774,            0.,NA,NA,"",   266.000E-03,   159.525E-03,  -212.856E-03,   9.25518E-03
C:/temp/dataset/8/7_36.odb,Step-1,Increment      1: Step Time =    1.000,"PART-1-1",           799,           -5.,          6.25,            0.,NA,NA,"",   344.515E-03,   198.007E-03,  -281.929E-03,   11.4438E-03
C:/temp/dataset/8/7_36.odb,Step-1,Increment      1: Step Time =    1.000,"PART-1-1",           800,      -5.99813,       4.86531,            0.,NA,NA,"",   333.054E-03,   196.529E-03,  -268.889E-03,   11.0737E-03
C:/temp/dataset/8/7_36.odb,Step-1,Increment      1: Step Time =    1.000,"PART-1-1",           801,           -5.,         -6.25,            0.,NA,NA,"",   228.767E-03,   101.540E-03,  -204.997E-03,   11.2104E-03
C:/temp/dataset/8/7_36.odb,Step-1,Increment      1: Step Time =    1.000,"PART-1-1",           802,      -7.47947,      -6.74432,            0.,NA,NA,"",   194.451E-03,   87.2251E-03,  -173.790E-03,   7.89131E-03
C:/temp/dataset/8/7_36.odb,Step-1,Increment      1: Step Time =    1.000,"PART-1-1",           803,      -11.2689,      -15.1223,            0.,NA,NA,"",   85.1252E-03,  -423.472E-06,  -85.1241E-03,   7.10866E-03
C:/temp/dataset/8/7_36.odb,Step-1,Increment      1: Step Time =    1.000,"PART-1-1",           804,          -15.,        -18.75,            0.,NA,NA,"",   59.2681E-03,  -24.9008E-03,  -53.7834E-03,   3.69790E-03
C:/temp/dataset/8/7_36.odb,Step-1,Increment      1: Step Time =    1.000,"PART-1-1",           805,           -5.,        -18.75,            0.,NA,NA,"",   70.6040E-03,   4.35132E-03,  -70.4698E-03,   16.3528E-03
C:/temp/dataset/8/7_36.odb,Step-1,Increment      1: Step Time =    1.000,"PART-1-1",           806,          -15.,        -23.75,            0.,NA,NA,"",   44.5194E-03,  -26.7511E-03,  -35.5859E-03,   4.64832E-03
C:/temp/dataset/8/7_36.odb,Step-1,Increment      1: Step Time =    1.000,"PART-1-1",           807,      -13.0017,      -23.4761,            0.,NA,NA,"",   41.8692E-03,  -22.3708E-03,  -35.3918E-03,   5.96394E-03
C:/temp/dataset/8/7_36.odb,Step-1,Increment      1: Step Time =    1.000,"PART-1-1",           808,      -10.8880,      -24.7257,            0.,NA,NA,"",   31.2836E-03,  -14.1458E-03,  -27.9027E-03,   6.81701E-03
C:/temp/dataset/8/7_36.odb,Step-1,Increment      1: Step Time =    1.000,"PART-1-1",           809,      -12.0004,      -24.2920,            0.,NA,NA,"",   35.6285E-03,  -18.2004E-03,  -30.6290E-03,   6.60336E-03
C:/temp/dataset/8/7_36.odb,Step-1,Increment      1: Step Time =    1.000,"PART-1-1",           810,      -11.4496,      -26.3253,            0.,NA,NA,"",   22.2552E-03,  -12.0147E-03,  -18.7334E-03,   6.58996E-03
C:/temp/dataset/8/7_36.odb,Step-1,Increment      1: Step Time =    1.000,"PART-1-1",           811,      -4.83189,      -26.5259,            0.,NA,NA,"",   11.4981E-03,   1.48861E-03,  -11.4014E-03,   4.57530E-03
C:/temp/dataset/8/7_36.odb,Step-1,Increment      1: Step Time =    1.000,"PART-1-1",           812,      -2.49092,      -26.4256,            0.,NA,NA,"",   7.64801E-03,   1.44000E-03,  -7.51122E-03,   3.24110E-03
C:/temp/dataset/8/7_36.odb,Step-1,Increment      1: Step Time =    1.000,"PART-1-1",           813,      -1.37789,      -25.1306,            0.,NA,NA,"",   7.78937E-03,   1.61798E-03,  -7.61947E-03,   3.07934E-03
C:/temp/dataset/8/7_36.odb,Step-1,Increment      1: Step Time =    1.000,"PART-1-1",           814,          3.75,          -30.,            0.,NA,NA,"",            0.,  -2.68378E-39,  -11.4332E-39,   6.50532E-03
C:/temp/dataset/8/7_36.odb,Step-1,Increment      1: Step Time =    1.000,"PART-1-1",           815,       4.16934,      -27.2851,            0.,NA,NA,"",   14.5743E-03,  -5.60293E-03,  -13.4543E-03,   6.49824E-03
C:/temp/dataset/8/7_36.odb,Step-1,Increment      1: Step Time =    1.000,"PART-1-1",           816,       5.43798,      -24.9943,            0.,NA,NA,"",   35.0081E-03,  -269.831E-06,  -35.0070E-03,   9.54480E-03
C:/temp/dataset/8/7_36.odb,Step-1,Increment      1: Step Time =    1.000,"PART-1-1",           817,          3.75,          -20.,            0.,NA,NA,"",   49.9081E-03,   29.1906E-03,  -40.4812E-03,   6.15618E-03
C:/temp/dataset/8/7_36.odb,Step-1,Increment      1: Step Time =    1.000,"PART-1-1",           818,       3.87865,      -22.3090,            0.,NA,NA,"",   38.2033E-03,   5.53679E-03,  -37.7999E-03,   8.05664E-03
C:/temp/dataset/8/7_36.odb,Step-1,Increment      1: Step Time =    1.000,"PART-1-1",           819,       4.97861,      -23.9295,            0.,NA,NA,"",   39.7975E-03,   1.90517E-03,  -39.7519E-03,   9.82581E-03
C:/temp/dataset/8/7_36.odb,Step-1,Increment      1: Step Time =    1.000,"PART-1-1",           820,       6.87761,      -24.4106,            0.,NA,NA,"",   52.1244E-03,   7.96948E-03,  -51.5115E-03,   13.0323E-03
C:/temp/dataset/8/7_36.odb,Step-1,Increment      1: Step Time =    1.000,"PART-1-1",           821,       6.41824,      -23.3457,            0.,NA,NA,"",   60.8313E-03,   10.8252E-03,  -59.8604E-03,   13.3089E-03
C:/temp/dataset/8/7_36.odb,Step-1,Increment      1: Step Time =    1.000,"PART-1-1",           822,       11.2370,      -25.7479,            0.,NA,NA,"",   63.4865E-03,   27.2686E-03,  -57.3320E-03,   17.1158E-03
C:/temp/dataset/8/7_36.odb,Step-1,Increment      1: Step Time =    1.000,"PART-1-1",           823,       10.9706,      -24.3905,            0.,NA,NA,"",   84.4230E-03,   34.9921E-03,  -76.8297E-03,   17.4441E-03
C:/temp/dataset/8/7_36.odb,Step-1,Increment      1: Step Time =    1.000,"PART-1-1",           824,       9.19650,      -24.7169,            0.,NA,NA,"",   65.4881E-03,   20.2133E-03,  -62.2905E-03,   15.5691E-03
C:/temp/dataset/8/7_36.odb,Step-1,Increment      1: Step Time =    1.000,"PART-1-1",           825,       9.46288,      -26.0743,            0.,NA,NA,"",   46.9405E-03,   13.6626E-03,  -44.9081E-03,   15.1714E-03
C:/temp/dataset/8/7_36.odb,Step-1,Increment      1: Step Time =    1.000,"PART-1-1",           826,       7.41744,      -16.0774,            0.,NA,NA,"",   189.879E-03,   71.2623E-03,  -175.999E-03,   17.8195E-03
C:/temp/dataset/8/7_36.odb,Step-1,Increment      1: Step Time =    1.000,"PART-1-1",           827,            5.,        -16.25,            0.,NA,NA,"",   163.460E-03,   50.2442E-03,  -155.546E-03,   18.4645E-03
C:/temp/dataset/8/7_36.odb,Step-1,Increment      1: Step Time =    1.000,"PART-1-1",           828,       10.2193,      -13.8888,            0.,NA,NA,"",   257.513E-03,   106.508E-03,  -234.455E-03,   17.8027E-03
C:/temp/dataset/8/7_36.odb,Step-1,Increment      1: Step Time =    1.000,"PART-1-1",           829,            5.,         -6.25,            0.,NA,NA,"",   332.754E-03,   125.457E-03,  -308.198E-03,   17.5642E-03
C:/temp/dataset/8/7_36.odb,Step-1,Increment      1: Step Time =    1.000,"PART-1-1",           830,       7.31446,      -6.19141,            0.,NA,NA,"",   355.316E-03,   141.065E-03,  -326.114E-03,   14.9043E-03
C:/temp/dataset/8/7_36.odb,Step-1,Increment      1: Step Time =    1.000,"PART-1-1",           831,       6.34046,      -4.95308,            0.,NA,NA,"",   364.120E-03,   145.087E-03,  -333.965E-03,   14.8135E-03
C:/temp/dataset/8/7_36.odb,Step-1,Increment      1: Step Time =    1.000,"PART-1-1",           832,            5.,         13.75,            0.,NA,NA,"",   797.440E-03,   501.528E-03,  -619.984E-03,   29.7510E-03
C:/temp/dataset/8/7_36.odb,Step-1,Increment      1: Step Time =    1.000,"PART-1-1",           833,       7.92352,       13.7239,            0.,NA,NA,"",   848.482E-03,   535.148E-03,  -658.437E-03,   23.0112E-03
C:/temp/dataset/8/7_36.odb,Step-1,Increment      1: Step Time =    1.000,"PART-1-1",           834,       10.1519,       16.6176,            0.,NA,NA,"",   936.981E-03,   595.560E-03,  -723.355E-03,   16.7743E-03
C:/temp/dataset/8/7_36.odb,Step-1,Increment      1: Step Time =    1.000,"PART-1-1",           835,       11.3692,       15.2392,            0.,NA,NA,"",   922.043E-03,   586.413E-03,  -711.536E-03,   14.3435E-03
C:/temp/dataset/8/7_36.odb,Step-1,Increment      1: Step Time =    1.000,"PART-1-1",           836,       12.5765,       16.3836,            0.,NA,NA,"",   951.105E-03,   606.780E-03,  -732.406E-03,   10.8023E-03
C:/temp/dataset/8/7_36.odb,Step-1,Increment      1: Step Time =    1.000,"PART-1-1",           837,       11.3592,       17.7620,            0.,NA,NA,"",   962.140E-03,   613.039E-03,  -741.550E-03,   13.0249E-03
C:/temp/dataset/8/7_36.odb,Step-1,Increment      1: Step Time =    1.000,"PART-1-1",           838,           15.,       23.7188,            0.,NA,NA,"",   989.145E-03,   624.847E-03,  -766.795E-03,   418.016E-06
C:/temp/dataset/8/7_36.odb,Step-1,Increment      1: Step Time =    1.000,"PART-1-1",           839,       12.9788,       23.7285,            0.,NA,NA,"",       1.00177,   622.996E-03,  -784.485E-03,   5.55517E-03
C:/temp/dataset/8/7_36.odb,Step-1,Increment      1: Step Time =    1.000,"PART-1-1",           840,           15.,      -11.3062,            0.,NA,NA,"",   355.945E-03,   163.162E-03,  -316.346E-03,   19.1219E-03
C:/temp/dataset/8/7_36.odb,Step-1,Increment      1: Step Time =    1.000,"PART-1-1",           841,           15.,      -3.76875,            0.,NA,NA,"",   510.824E-03,   227.429E-03,  -457.402E-03,   22.6758E-03
C:/temp/dataset/8/7_36.odb,Step-1,Increment      1: Step Time =    1.000,"PART-1-1",           842,       8.77849,      -14.9509,            0.,NA,NA,"",   223.546E-03,   88.4923E-03,  -205.285E-03,   17.7193E-03
C:/temp/dataset/8/7_36.odb,Step-1,Increment      1: Step Time =    1.000,"PART-1-1",           843,       8.51352,      -17.2876,            0.,NA,NA,"",   181.327E-03,   72.0934E-03,  -166.379E-03,   17.5335E-03
C:/temp/dataset/8/7_36.odb,Step-1,Increment      1: Step Time =    1.000,"PART-1-1",           844,       8.29028,      -19.4067,            0.,NA,NA,"",   143.944E-03,   55.4900E-03,  -132.819E-03,   15.9530E-03
C:/temp/dataset/8/7_36.odb,Step-1,Increment      1: Step Time =    1.000,"PART-1-1",           845,       8.54933,      -8.48207,            0.,NA,NA,"",   331.384E-03,   130.860E-03,  -304.452E-03,   16.8120E-03
C:/temp/dataset/8/7_36.odb,Step-1,Increment      1: Step Time =    1.000,"PART-1-1",           846,       9.61157,      -8.87413,            0.,NA,NA,"",   337.215E-03,   135.806E-03,  -308.659E-03,   17.3874E-03
C:/temp/dataset/8/7_36.odb,Step-1,Increment      1: Step Time =    1.000,"PART-1-1",           847,       9.01937,      -7.15061,            0.,NA,NA,"",   359.431E-03,   144.711E-03,  -329.013E-03,   16.6575E-03
C:/temp/dataset/8/7_36.odb,Step-1,Increment      1: Step Time =    1.000,"PART-1-1",           848,           15.,       16.1812,            0.,NA,NA,"",   969.514E-03,   612.550E-03,  -751.493E-03,   4.55996E-03
C:/temp/dataset/8/7_36.odb,Step-1,Increment      1: Step Time =    1.000,"PART-1-1",           849,       8.94821,       15.2430,            0.,NA,NA,"",   899.005E-03,   569.431E-03,  -695.672E-03,   20.5689E-03
C:/temp/dataset/8/7_36.odb,Step-1,Increment      1: Step Time =    1.000,"PART-1-1",           850,       10.4061,       25.7620,            0.,NA,NA,"",       1.03338,   604.587E-03,  -838.057E-03,   12.3343E-03
C:/temp/dataset/8/7_36.odb,Step-1,Increment      1: Step Time =    1.000,"PART-1-1",           851,       11.8949,       24.7039,            0.,NA,NA,"",       1.01169,   614.724E-03,  -803.512E-03,   8.54840E-03
C:/temp/dataset/8/7_36.odb,Step-1,Increment      1: Step Time =    1.000,"PART-1-1",           852,       10.0121,   618.030E-03,            0.,NA,NA,"",   523.735E-03,   243.011E-03,  -463.944E-03,   18.7332E-03
C:/temp/dataset/8/7_36.odb,Step-1,Increment      1: Step Time =    1.000,"PART-1-1",           853,       8.14630,  -483.786E-03,            0.,NA,NA,"",   464.706E-03,   206.984E-03,  -416.064E-03,   16.5171E-03
C:/temp/dataset/8/7_36.odb,Step-1,Increment      1: Step Time =    1.000,"PART-1-1",           854,       9.59300,  -925.178E-03,            0.,NA,NA,"",   481.660E-03,   213.436E-03,  -431.789E-03,   17.8532E-03
C:/temp/dataset/8/7_36.odb,Step-1,Increment      1: Step Time =    1.000,"PART-1-1",           855,       8.91739,      -9.92907,            0.,NA,NA,"",   310.984E-03,   122.792E-03,  -285.715E-03,   17.2723E-03
C:/temp/dataset/8/7_36.odb,Step-1,Increment      1: Step Time =    1.000,"PART-1-1",           856,       9.91925,      -10.6601,            0.,NA,NA,"",   309.927E-03,   125.407E-03,  -283.421E-03,   17.7406E-03
C:/temp/dataset/8/7_36.odb,Step-1,Increment      1: Step Time =    1.000,"PART-1-1",           857,       10.2742,      -21.0973,            0.,NA,NA,"",   135.237E-03,   55.6316E-03,  -123.265E-03,   16.9656E-03
C:/temp/dataset/8/7_36.odb,Step-1,Increment      1: Step Time =    1.000,"PART-1-1",           858,       9.54806,      -22.4908,            0.,NA,NA,"",   104.539E-03,   38.8263E-03,  -97.0618E-03,   16.7231E-03
C:/temp/dataset/8/7_36.odb,Step-1,Increment      1: Step Time =    1.000,"PART-1-1",           859,       10.5666,      -23.0191,            0.,NA,NA,"",   104.606E-03,   42.3834E-03,  -95.6350E-03,   17.1729E-03
C:/temp/dataset/8/7_36.odb,Step-1,Increment      1: Step Time =    1.000,"PART-1-1",           860,       12.3242,       9.79639,            0.,NA,NA,"",   813.426E-03,   485.044E-03,  -652.989E-03,   15.7623E-03
C:/temp/dataset/8/7_36.odb,Step-1,Increment      1: Step Time =    1.000,"PART-1-1",           861,       7.92117,       5.59347,            0.,NA,NA,"",   612.432E-03,   340.255E-03,  -509.215E-03,   18.8451E-03
C:/temp/dataset/8/7_36.odb,Step-1,Increment      1: Step Time =    1.000,"PART-1-1",           862,       8.33004,      -21.4224,            0.,NA,NA,"",   110.854E-03,   38.7495E-03,  -103.861E-03,   16.3557E-03
C:/temp/dataset/8/7_36.odb,Step-1,Increment      1: Step Time =    1.000,"PART-1-1",           863,       7.29914,      -22.4807,            0.,NA,NA,"",   82.7969E-03,   22.4774E-03,  -79.6875E-03,   15.6790E-03
C:/temp/dataset/8/7_36.odb,Step-1,Increment      1: Step Time =    1.000,"PART-1-1",           864,       8.51716,      -23.5491,            0.,NA,NA,"",   78.0535E-03,   23.3547E-03,  -74.4776E-03,   15.6923E-03
C:/temp/dataset/8/7_36.odb,Step-1,Increment      1: Step Time =    1.000,"PART-1-1",           865,       6.99898,  -94.4608E-03,            0.,NA,NA,"",   451.537E-03,   203.211E-03,  -403.226E-03,   14.5216E-03
C:/temp/dataset/8/7_36.odb,Step-1,Increment      1: Step Time =    1.000,"PART-1-1",           866,       6.64294,      -1.54983,            0.,NA,NA,"",   420.114E-03,   179.374E-03,  -379.896E-03,   13.6922E-03
C:/temp/dataset/8/7_36.odb,Step-1,Increment      1: Step Time =    1.000,"PART-1-1",           867,       7.79026,      -1.93916,            0.,NA,NA,"",   430.973E-03,   183.595E-03,  -389.911E-03,   15.8388E-03
C:/temp/dataset/8/7_36.odb,Step-1,Increment      1: Step Time =    1.000,"PART-1-1",           868,       11.5427,  -143.487E-03,            0.,NA,NA,"",   534.923E-03,   244.096E-03,  -475.983E-03,   19.5573E-03
C:/temp/dataset/8/7_36.odb,Step-1,Increment      1: Step Time =    1.000,"PART-1-1",           869,       11.3126,       11.6131,            0.,NA,NA,"",   842.404E-03,   520.144E-03,  -662.642E-03,   16.2009E-03
C:/temp/dataset/8/7_36.odb,Step-1,Increment      1: Step Time =    1.000,"PART-1-1",           870,       9.33019,      -20.3146,            0.,NA,NA,"",   139.315E-03,   55.1986E-03,  -127.914E-03,   16.5066E-03
C:/temp/dataset/8/7_36.odb,Step-1,Increment      1: Step Time =    1.000,"PART-1-1",           871,       7.28132,      -3.66733,            0.,NA,NA,"",   394.220E-03,   161.216E-03,  -359.749E-03,   15.4119E-03
C:/temp/dataset/8/7_36.odb,Step-1,Increment      1: Step Time =    1.000,"PART-1-1",           872,       5.82701,      -2.52645,            0.,NA,NA,"",   394.508E-03,   161.768E-03,  -359.816E-03,   11.9151E-03
C:/temp/dataset/8/7_36.odb,Step-1,Increment      1: Step Time =    1.000,"PART-1-1",           873,       10.7738,      -1.22826,            0.,NA,NA,"",   496.354E-03,   219.806E-03,  -445.031E-03,   18.8184E-03
C:/temp/dataset/8/7_36.odb,Step-1,Increment      1: Step Time =    1.000,"PART-1-1",           874,       5.18435,       1.03936,            0.,NA,NA,"",   436.745E-03,   208.651E-03,  -383.681E-03,   10.1866E-03
C:/temp/dataset/8/7_36.odb,Step-1,Increment      1: Step Time =    1.000,"PART-1-1",           875,      -5.71989,       2.55098,            0.,NA,NA,"",   315.033E-03,   191.556E-03,  -250.104E-03,   8.20611E-03
C:/temp/dataset/8/7_36.odb,Step-1,Increment      1: Step Time =    1.000,"PART-1-1",           876,      -6.86925,       3.62296,            0.,NA,NA,"",   315.891E-03,   188.636E-03,  -253.384E-03,   11.0580E-03
C:/temp/dataset/8/7_36.odb,Step-1,Increment      1: Step Time =    1.000,"PART-1-1",           877,       11.1755,       23.5651,            0.,NA,NA,"",       1.01566,   617.594E-03,  -806.320E-03,   12.4081E-03
C:/temp/dataset/8/7_36.odb,Step-1,Increment      1: Step Time =    1.000,"PART-1-1",           878,       10.0167,       23.9572,            0.,NA,NA,"",       1.02955,   609.673E-03,  -829.618E-03,   17.7215E-03
C:/temp/dataset/8/7_36.odb,Step-1,Increment      1: Step Time =    1.000,"PART-1-1",           879,       10.8015,       21.7536,            0.,NA,NA,"",       1.00444,   618.810E-03,  -791.180E-03,   14.7088E-03
C:/temp/dataset/8/7_36.odb,Step-1,Increment      1: Step Time =    1.000,"PART-1-1",           880,      -8.16238,      -23.1050,            0.,NA,NA,"",   38.3993E-03,  -8.04450E-03,  -37.5472E-03,   7.98631E-03
C:/temp/dataset/8/7_36.odb,Step-1,Increment      1: Step Time =    1.000,"PART-1-1",           881,       7.66479,      -7.61710,            0.,NA,NA,"",   335.693E-03,   131.331E-03,  -308.936E-03,   16.2258E-03
C:/temp/dataset/8/7_36.odb,Step-1,Increment      1: Step Time =    1.000,"PART-1-1",           882,       5.33780,      -22.5391,            0.,NA,NA,"",   56.8468E-03,   9.60601E-03,  -56.0293E-03,   12.2869E-03
C:/temp/dataset/8/7_36.odb,Step-1,Increment      1: Step Time =    1.000,"PART-1-1",           883,      -9.54743,       23.1682,            0.,NA,NA,"",   580.172E-03,   444.513E-03,  -372.837E-03,   4.87816E-03
C:/temp/dataset/8/7_36.odb,Step-1,Increment      1: Step Time =    1.000,"PART-1-1",           884,      -7.33156,       22.8900,            0.,NA,NA,"",   639.475E-03,   440.164E-03,  -463.880E-03,   11.5408E-03
C:/temp/dataset/8/7_36.odb,Step-1,Increment      1: Step Time =    1.000,"PART-1-1",           885,      -10.1338,       27.3181,            0.,NA,NA,"",   713.069E-03,   613.613E-03,  -363.245E-03,   1.48908E-03
C:/temp/dataset/8/7_36.odb,Step-1,Increment      1: Step Time =    1.000,"PART-1-1",           886,      -10.9921,       25.8314,            0.,NA,NA,"",   639.712E-03,   550.949E-03,  -325.095E-03,   1.78057E-03
C:/temp/dataset/8/7_36.odb,Step-1,Increment      1: Step Time =    1.000,"PART-1-1",           887,      -9.34891,      -26.6495,            0.,NA,NA,"",   17.1043E-03,  -6.12224E-03,  -15.9710E-03,   6.41136E-03
C:/temp/dataset/8/7_36.odb,Step-1,Increment      1: Step Time =    1.000,"PART-1-1",           888,      -9.91282,      -25.5457,            0.,NA,NA,"",   24.6761E-03,  -9.75034E-03,  -22.6680E-03,   6.84284E-03
C:/temp/dataset/8/7_36.odb,Step-1,Increment      1: Step Time =    1.000,"PART-1-1",           889,       7.84920,      -9.48897,            0.,NA,NA,"",   306.406E-03,   117.973E-03,  -282.785E-03,   16.9377E-03
C:/temp/dataset/8/7_36.odb,Step-1,Increment      1: Step Time =    1.000,"PART-1-1",           890,       10.1788,       14.4028,            0.,NA,NA,"",   893.066E-03,   565.971E-03,  -690.828E-03,   17.5705E-03
C:/temp/dataset/8/7_36.odb,Step-1,Increment      1: Step Time =    1.000,"PART-1-1",           891,       11.2326,       12.9154,            0.,NA,NA,"",   872.199E-03,   546.517E-03,  -679.743E-03,   16.1146E-03
C:/temp/dataset/8/7_36.odb,Step-1,Increment      1: Step Time =    1.000,"PART-1-1",           892,       9.23404,       11.5815,            0.,NA,NA,"",   810.110E-03,   503.863E-03,  -634.350E-03,   19.9435E-03
C:/temp/dataset/8/7_36.odb,Step-1,Increment      1: Step Time =    1.000,"PART-1-1",           893,   112.429E-03,       26.3323,            0.,NA,NA,"",       1.05532,   544.542E-03,  -903.972E-03,   20.9625E-03
C:/temp/dataset/8/7_36.odb,Step-1,Increment      1: Step Time =    1.000,"PART-1-1",           894,       9.25881,       26.1684,            0.,NA,NA,"",       1.05805,   600.595E-03,  -871.060E-03,   18.5908E-03
C:/temp/dataset/8/7_36.odb,Step-1,Increment      1: Step Time =    1.000,"PART-1-1",           895,       7.09344,       26.4940,            0.,NA,NA,"",       1.11376,   591.168E-03,  -943.918E-03,   29.9828E-03
C:/temp/dataset/8/7_36.odb,Step-1,Increment      1: Step Time =    1.000,"PART-1-1",           896,       7.75521,       25.3319,            0.,NA,NA,"",       1.08105,   592.545E-03,  -904.196E-03,   27.9442E-03
C:/temp/dataset/8/7_36.odb,Step-1,Increment      1: Step Time =    1.000,"PART-1-1",           897,      -7.14155,      -26.6171,            0.,NA,NA,"",   14.6167E-03,  -1.56516E-03,  -14.5326E-03,   5.81782E-03
C:/temp/dataset/8/7_36.odb,Step-1,Increment      1: Step Time =    1.000,"PART-1-1",           898,      -8.08000,      -25.5235,            0.,NA,NA,"",   22.1335E-03,  -4.72862E-03,  -21.6225E-03,   6.58246E-03
C:/temp/dataset/8/7_36.odb,Step-1,Increment      1: Step Time =    1.000,"PART-1-1",           899,      -8.48057,      -5.93862,            0.,NA,NA,"",   193.908E-03,   93.0747E-03,  -170.110E-03,   7.84681E-03
C:/temp/dataset/8/7_36.odb,Step-1,Increment      1: Step Time =    1.000,"PART-1-1",           900,      -8.12610,       27.0862,            0.,NA,NA,"",   753.360E-03,   603.383E-03,  -451.087E-03,   3.16270E-03
C:/temp/dataset/8/7_36.odb,Step-1,Increment      1: Step Time =    1.000,"PART-1-1",           901,      -9.26041,       26.3166,            0.,NA,NA,"",   696.316E-03,   571.328E-03,  -398.045E-03,   2.52807E-03
C:/temp/dataset/8/7_36.odb,Step-1,Increment      1: Step Time =    1.000,"PART-1-1",           902,      -11.3442,       15.0048,            0.,NA,NA,"",   361.693E-03,   222.930E-03,  -284.823E-03,   5.95263E-03
C:/temp/dataset/8/7_36.odb,Step-1,Increment      1: Step Time =    1.000,"PART-1-1",           903,      -11.3385,       12.5628,            0.,NA,NA,"",   337.124E-03,   195.852E-03,  -274.398E-03,   7.09787E-03
C:/temp/dataset/8/7_36.odb,Step-1,Increment      1: Step Time =    1.000,"PART-1-1",           904,      -8.76514,       3.13980,            0.,NA,NA,"",   293.912E-03,   174.669E-03,  -236.379E-03,   10.1370E-03
C:/temp/dataset/8/7_36.odb,Step-1,Increment      1: Step Time =    1.000,"PART-1-1",           905,      -10.2716,  -495.292E-03,            0.,NA,NA,"",   242.422E-03,   143.883E-03,  -195.105E-03,   8.72533E-03
C:/temp/dataset/8/7_36.odb,Step-1,Increment      1: Step Time =    1.000,"PART-1-1",           906,      -8.74135,  -976.005E-03,            0.,NA,NA,"",   251.143E-03,   146.954E-03,  -203.660E-03,   8.47851E-03
C:/temp/dataset/8/7_36.odb,Step-1,Increment      1: Step Time =    1.000,"PART-1-1",           907,      -12.2685,      -22.3380,            0.,NA,NA,"",   46.9451E-03,  -21.7174E-03,  -41.6196E-03,   6.16662E-03
C:/temp/dataset/8/7_36.odb,Step-1,Increment      1: Step Time =    1.000,"PART-1-1",           908,  -128.822E-03,      -26.2855,            0.,NA,NA,"",   6.63436E-03,  -1.53042E-03,  -6.45542E-03,   2.89001E-03
C:/temp/dataset/8/7_36.odb,Step-1,Increment      1: Step Time =    1.000,"PART-1-1",           909,       9.08441,      -12.4818,            0.,NA,NA,"",   269.049E-03,   106.591E-03,  -247.034E-03,   17.6706E-03
C:/temp/dataset/8/7_36.odb,Step-1,Increment      1: Step Time =    1.000,"PART-1-1",           910,      -10.0834,       11.4216,            0.,NA,NA,"",   344.601E-03,   190.948E-03,  -286.861E-03,   9.48359E-03
C:/temp/dataset/8/7_36.odb,Step-1,Increment      1: Step Time =    1.000,"PART-1-1",           911,      -11.2862,       10.1474,            0.,NA,NA,"",   318.759E-03,   180.568E-03,  -262.683E-03,   7.88784E-03
C:/temp/dataset/8/7_36.odb,Step-1,Increment      1: Step Time =    1.000,"PART-1-1",           912,      -6.58594,       1.63223,            0.,NA,NA,"",   299.452E-03,   180.210E-03,  -239.157E-03,   8.46694E-03
C:/temp/dataset/8/7_36.odb,Step-1,Increment      1: Step Time =    1.000,"PART-1-1",           913,      -11.0544,       22.2894,            0.,NA,NA,"",   516.566E-03,   410.195E-03,  -313.975E-03,   2.76400E-03
C:/temp/dataset/8/7_36.odb,Step-1,Increment      1: Step Time =    1.000,"PART-1-1",           914,      -10.5857,       24.6765,            0.,NA,NA,"",   606.527E-03,   503.373E-03,  -338.365E-03,   2.69168E-03
C:/temp/dataset/8/7_36.odb,Step-1,Increment      1: Step Time =    1.000,"PART-1-1",           915,      -9.16144,      -24.4379,            0.,NA,NA,"",   30.7656E-03,  -9.47538E-03,  -29.2701E-03,   7.24456E-03
C:/temp/dataset/8/7_36.odb,Step-1,Increment      1: Step Time =    1.000,"PART-1-1",           916,       10.2685,      -27.1971,            0.,NA,NA,"",   34.6100E-03,   11.6288E-03,  -32.5979E-03,   15.3370E-03
C:/temp/dataset/8/7_36.odb,Step-1,Increment      1: Step Time =    1.000,"PART-1-1",           917,       11.0541,      -20.1271,            0.,NA,NA,"",   159.703E-03,   69.2965E-03,  -143.885E-03,   17.2269E-03
C:/temp/dataset/8/7_36.odb,Step-1,Increment      1: Step Time =    1.000,"PART-1-1",           918,       9.15406,       12.8837,            0.,NA,NA,"",   843.601E-03,   530.420E-03,  -655.985E-03,   19.8778E-03
C:/temp/dataset/8/7_36.odb,Step-1,Increment      1: Step Time =    1.000,"PART-1-1",           919,       12.2594,       22.5896,            0.,NA,NA,"",       1.00387,   625.393E-03,  -785.263E-03,   9.39480E-03
C:/temp/dataset/8/7_36.odb,Step-1,Increment      1: Step Time =    1.000,"PART-1-1",           920,       11.4390,       20.5291,            0.,NA,NA,"",   992.565E-03,   623.448E-03,  -772.333E-03,   12.8362E-03
C:/temp/dataset/8/7_36.odb,Step-1,Increment      1: Step Time =    1.000,"PART-1-1",           921,       9.26936,      -2.41689,            0.,NA,NA,"",   446.082E-03,   190.421E-03,  -403.397E-03,   17.3268E-03
C:/temp/dataset/8/7_36.odb,Step-1,Increment      1: Step Time =    1.000,"PART-1-1",           922,       5.58568,  -453.309E-03,            0.,NA,NA,"",   421.102E-03,   187.585E-03,  -377.013E-03,   10.4300E-03
C:/temp/dataset/8/7_36.odb,Step-1,Increment      1: Step Time =    1.000,"PART-1-1",           923,      -8.35205,   877.030E-03,            0.,NA,NA,"",   275.427E-03,   164.595E-03,  -220.836E-03,   8.93635E-03
C:/temp/dataset/8/7_36.odb,Step-1,Increment      1: Step Time =    1.000,"PART-1-1",           924,      -7.85594,       2.30266,            0.,NA,NA,"",   294.712E-03,   176.638E-03,  -235.911E-03,   9.66908E-03
C:/temp/dataset/8/7_36.odb,Step-1,Increment      1: Step Time =    1.000,"PART-1-1",           925,      -6.37117,       23.7044,            0.,NA,NA,"",   703.900E-03,   474.640E-03,  -519.800E-03,   14.6227E-03
C:/temp/dataset/8/7_36.odb,Step-1,Increment      1: Step Time =    1.000,"PART-1-1",           926,       8.86937,       24.3636,            0.,NA,NA,"",       1.04817,   600.469E-03,  -859.127E-03,   23.2417E-03
C:/temp/dataset/8/7_36.odb,Step-1,Increment      1: Step Time =    1.000,"PART-1-1",           927,       8.44688,      -11.4338,            0.,NA,NA,"",   279.942E-03,   108.576E-03,  -258.029E-03,   17.4657E-03
