ODB Name,Step,Frame,Part Instance Name,    êﬂì_ÉâÉxÉã,X,Y,Z,Section Name,Material Name,Section Point,   U-Magnitude,          U-U1,          U-U2,       S-Mises
C:/temp/dataset/8/7_4.odb,Step-1,Increment      1: Step Time =    1.000,"PART-1-1",             1,            5.,           -5.,            0.,NA,NA,"",   40.4838E-03,   14.8021E-03,  -37.6807E-03,   1.64816E-03
C:/temp/dataset/8/7_4.odb,Step-1,Increment      1: Step Time =    1.000,"PART-1-1",             2,            0.,           -5.,            0.,NA,NA,"",   36.4958E-03,   12.7676E-03,  -34.1896E-03,   255.043E-06
C:/temp/dataset/8/7_4.odb,Step-1,Increment      1: Step Time =    1.000,"PART-1-1",             3,            5.,         -12.5,            0.,NA,NA,"",   25.8497E-03,   8.34032E-03,  -24.4673E-03,   1.95073E-03
C:/temp/dataset/8/7_4.odb,Step-1,Increment      1: Step Time =    1.000,"PART-1-1",             4,            5.,          -20.,            0.,NA,NA,"",   9.95204E-03,   3.85862E-03,  -9.17356E-03,   2.30870E-03
C:/temp/dataset/8/7_4.odb,Step-1,Increment      1: Step Time =    1.000,"PART-1-1",             5,            0.,          -20.,            0.,NA,NA,"",   1.77939E-03,   1.19273E-03,  -1.32047E-03,   622.666E-06
C:/temp/dataset/8/7_4.odb,Step-1,Increment      1: Step Time =    1.000,"PART-1-1",             6,           -5.,          -20.,            0.,NA,NA,"",   5.78734E-03,  -357.527E-06,  -5.77629E-03,   1.74589E-03
C:/temp/dataset/8/7_4.odb,Step-1,Increment      1: Step Time =    1.000,"PART-1-1",             7,           -5.,           -5.,            0.,NA,NA,"",   27.9718E-03,   11.9258E-03,  -25.3021E-03,   1.09739E-03
C:/temp/dataset/8/7_4.odb,Step-1,Increment      1: Step Time =    1.000,"PART-1-1",             8,            5.,           20.,            0.,NA,NA,"",   111.344E-03,   58.4854E-03,  -94.7466E-03,   4.70374E-03
C:/temp/dataset/8/7_4.odb,Step-1,Increment      1: Step Time =    1.000,"PART-1-1",             9,            0.,           20.,            0.,NA,NA,"",   104.592E-03,   42.0058E-03,  -95.7862E-03,   3.29938E-03
C:/temp/dataset/8/7_4.odb,Step-1,Increment      1: Step Time =    1.000,"PART-1-1",            10,            5.,          12.5,            0.,NA,NA,"",   84.3052E-03,   51.3927E-03,  -66.8294E-03,   3.12782E-03
C:/temp/dataset/8/7_4.odb,Step-1,Increment      1: Step Time =    1.000,"PART-1-1",            11,            5.,            5.,            0.,NA,NA,"",   57.8157E-03,   32.0810E-03,  -48.0985E-03,   2.09493E-03
C:/temp/dataset/8/7_4.odb,Step-1,Increment      1: Step Time =    1.000,"PART-1-1",            12,            0.,            5.,            0.,NA,NA,"",   44.2742E-03,   26.7113E-03,  -35.3088E-03,   985.312E-06
C:/temp/dataset/8/7_4.odb,Step-1,Increment      1: Step Time =    1.000,"PART-1-1",            13,           -5.,            5.,            0.,NA,NA,"",   37.7643E-03,   21.6313E-03,  -30.9553E-03,   1.19033E-03
C:/temp/dataset/8/7_4.odb,Step-1,Increment      1: Step Time =    1.000,"PART-1-1",            14,           -5.,           20.,            0.,NA,NA,"",   70.8834E-03,   35.0216E-03,  -61.6274E-03,   3.91072E-03
C:/temp/dataset/8/7_4.odb,Step-1,Increment      1: Step Time =    1.000,"PART-1-1",            15,           15.,           30.,            0.,NA,NA,"",   103.635E-03,   58.0897E-03,  -85.8237E-03,   21.7171E-06
C:/temp/dataset/8/7_4.odb,Step-1,Increment      1: Step Time =    1.000,"PART-1-1",            16,           7.5,           30.,            0.,NA,NA,"",   123.518E-03,   56.5615E-03,  -109.807E-03,   2.31697E-03
C:/temp/dataset/8/7_4.odb,Step-1,Increment      1: Step Time =    1.000,"PART-1-1",            17,            0.,           30.,            0.,NA,NA,"",   128.720E-03,   75.1734E-03,  -104.488E-03,   3.10784E-03
C:/temp/dataset/8/7_4.odb,Step-1,Increment      1: Step Time =    1.000,"PART-1-1",            18,          -15.,           30.,            0.,NA,NA,"",   79.8704E-03,   77.3017E-03,  -20.0931E-03,   21.0366E-06
C:/temp/dataset/8/7_4.odb,Step-1,Increment      1: Step Time =    1.000,"PART-1-1",            19,          -15.,          -30.,            0.,NA,NA,"",            0.,  -427.605E-42,  -723.783E-42,   1.38289E-03
C:/temp/dataset/8/7_4.odb,Step-1,Increment      1: Step Time =    1.000,"PART-1-1",            20,           15.,          -30.,            0.,NA,NA,"",            0.,   1.11885E-39,  -1.87267E-39,   3.56241E-03
C:/temp/dataset/8/7_4.odb,Step-1,Increment      1: Step Time =    1.000,"PART-1-1",            21,           15.,      -20.1000,            0.,NA,NA,"",   22.5786E-03,   11.4063E-03,  -19.4857E-03,   1.97889E-03
C:/temp/dataset/8/7_4.odb,Step-1,Increment      1: Step Time =    1.000,"PART-1-1",            22,           15.,      -10.0500,            0.,NA,NA,"",   42.4035E-03,   19.1908E-03,  -37.8123E-03,   2.18530E-03
C:/temp/dataset/8/7_4.odb,Step-1,Increment      1: Step Time =    1.000,"PART-1-1",            23,           15.,            0.,            0.,NA,NA,"",   67.4259E-03,   30.7161E-03,  -60.0231E-03,   2.63576E-03
C:/temp/dataset/8/7_4.odb,Step-1,Increment      1: Step Time =    1.000,"PART-1-1",            24,           15.,       9.90000,            0.,NA,NA,"",   96.0277E-03,   54.6420E-03,  -78.9657E-03,   1.38978E-03
C:/temp/dataset/8/7_4.odb,Step-1,Increment      1: Step Time =    1.000,"PART-1-1",            25,           15.,       19.9500,            0.,NA,NA,"",   109.935E-03,   68.5533E-03,  -85.9422E-03,   347.017E-06
C:/temp/dataset/8/7_4.odb,Step-1,Increment      1: Step Time =    1.000,"PART-1-1",            26,           2.5,           -5.,            0.,NA,NA,"",   39.7858E-03,   13.5220E-03,  -37.4175E-03,   557.676E-06
C:/temp/dataset/8/7_4.odb,Step-1,Increment      1: Step Time =    1.000,"PART-1-1",            27,            5.,          -10.,            0.,NA,NA,"",   30.5447E-03,   10.2503E-03,  -28.7735E-03,   1.85472E-03
C:/temp/dataset/8/7_4.odb,Step-1,Increment      1: Step Time =    1.000,"PART-1-1",            28,            5.,          -7.5,            0.,NA,NA,"",   35.1466E-03,   12.4477E-03,  -32.8685E-03,   1.93119E-03
C:/temp/dataset/8/7_4.odb,Step-1,Increment      1: Step Time =    1.000,"PART-1-1",            29,            5.,         -17.5,            0.,NA,NA,"",   16.2232E-03,   5.05421E-03,  -15.4158E-03,   2.24281E-03
C:/temp/dataset/8/7_4.odb,Step-1,Increment      1: Step Time =    1.000,"PART-1-1",            30,            5.,          -15.,            0.,NA,NA,"",   21.0487E-03,   6.58535E-03,  -19.9921E-03,   2.01750E-03
C:/temp/dataset/8/7_4.odb,Step-1,Increment      1: Step Time =    1.000,"PART-1-1",            31,           2.5,          -20.,            0.,NA,NA,"",   3.95928E-03,   2.71218E-03,  -2.88444E-03,   766.200E-06
C:/temp/dataset/8/7_4.odb,Step-1,Increment      1: Step Time =    1.000,"PART-1-1",            32,          -2.5,          -20.,            0.,NA,NA,"",   1.87348E-03,  -35.1834E-06,  -1.87315E-03,   486.492E-06
C:/temp/dataset/8/7_4.odb,Step-1,Increment      1: Step Time =    1.000,"PART-1-1",            33,           -5.,          -7.5,            0.,NA,NA,"",   23.9910E-03,   9.37757E-03,  -22.0823E-03,   1.23123E-03
C:/temp/dataset/8/7_4.odb,Step-1,Increment      1: Step Time =    1.000,"PART-1-1",            34,           -5.,          -10.,            0.,NA,NA,"",   20.6183E-03,   6.92965E-03,  -19.4189E-03,   1.23292E-03
C:/temp/dataset/8/7_4.odb,Step-1,Increment      1: Step Time =    1.000,"PART-1-1",            35,           -5.,         -12.5,            0.,NA,NA,"",   17.1912E-03,   4.68524E-03,  -16.5404E-03,   1.32231E-03
C:/temp/dataset/8/7_4.odb,Step-1,Increment      1: Step Time =    1.000,"PART-1-1",            36,           -5.,          -15.,            0.,NA,NA,"",   13.7603E-03,   2.76119E-03,  -13.4804E-03,   1.38684E-03
C:/temp/dataset/8/7_4.odb,Step-1,Increment      1: Step Time =    1.000,"PART-1-1",            37,           -5.,         -17.5,            0.,NA,NA,"",   10.3573E-03,   1.12994E-03,  -10.2955E-03,   1.65363E-03
C:/temp/dataset/8/7_4.odb,Step-1,Increment      1: Step Time =    1.000,"PART-1-1",            38,          -2.5,           -5.,            0.,NA,NA,"",   32.8250E-03,   12.2957E-03,  -30.4352E-03,   270.391E-06
C:/temp/dataset/8/7_4.odb,Step-1,Increment      1: Step Time =    1.000,"PART-1-1",            39,           2.5,           20.,            0.,NA,NA,"",   113.539E-03,   50.3455E-03,  -101.767E-03,   3.76276E-03
C:/temp/dataset/8/7_4.odb,Step-1,Increment      1: Step Time =    1.000,"PART-1-1",            40,            5.,           15.,            0.,NA,NA,"",   92.9643E-03,   55.8507E-03,  -74.3173E-03,   3.50390E-03
C:/temp/dataset/8/7_4.odb,Step-1,Increment      1: Step Time =    1.000,"PART-1-1",            41,            5.,          17.5,            0.,NA,NA,"",   101.436E-03,   58.8756E-03,  -82.6010E-03,   4.24671E-03
C:/temp/dataset/8/7_4.odb,Step-1,Increment      1: Step Time =    1.000,"PART-1-1",            42,            5.,           7.5,            0.,NA,NA,"",   67.1404E-03,   39.4915E-03,  -54.2978E-03,   2.56634E-03
C:/temp/dataset/8/7_4.odb,Step-1,Increment      1: Step Time =    1.000,"PART-1-1",            43,            5.,           10.,            0.,NA,NA,"",   75.6178E-03,   45.8119E-03,  -60.1608E-03,   2.77372E-03
C:/temp/dataset/8/7_4.odb,Step-1,Increment      1: Step Time =    1.000,"PART-1-1",            44,           2.5,            5.,            0.,NA,NA,"",   49.3256E-03,   29.0693E-03,  -39.8496E-03,   1.14922E-03
C:/temp/dataset/8/7_4.odb,Step-1,Increment      1: Step Time =    1.000,"PART-1-1",            45,          -2.5,            5.,            0.,NA,NA,"",   40.3609E-03,   24.5097E-03,  -32.0667E-03,   1.04571E-03
C:/temp/dataset/8/7_4.odb,Step-1,Increment      1: Step Time =    1.000,"PART-1-1",            46,           -5.,          17.5,            0.,NA,NA,"",   60.4639E-03,   30.3275E-03,  -52.3080E-03,   3.06954E-03
C:/temp/dataset/8/7_4.odb,Step-1,Increment      1: Step Time =    1.000,"PART-1-1",            47,           -5.,           15.,            0.,NA,NA,"",   53.6869E-03,   26.3968E-03,  -46.7492E-03,   2.33505E-03
C:/temp/dataset/8/7_4.odb,Step-1,Increment      1: Step Time =    1.000,"PART-1-1",            48,           -5.,          12.5,            0.,NA,NA,"",   47.9775E-03,   23.5581E-03,  -41.7953E-03,   2.03301E-03
C:/temp/dataset/8/7_4.odb,Step-1,Increment      1: Step Time =    1.000,"PART-1-1",            49,           -5.,           10.,            0.,NA,NA,"",   43.4753E-03,   21.8230E-03,  -37.6013E-03,   1.71746E-03
C:/temp/dataset/8/7_4.odb,Step-1,Increment      1: Step Time =    1.000,"PART-1-1",            50,           -5.,           7.5,            0.,NA,NA,"",   40.0483E-03,   21.0173E-03,  -34.0902E-03,   1.40739E-03
C:/temp/dataset/8/7_4.odb,Step-1,Increment      1: Step Time =    1.000,"PART-1-1",            51,          -2.5,           20.,            0.,NA,NA,"",   90.0665E-03,   36.0762E-03,  -82.5257E-03,   1.74234E-03
C:/temp/dataset/8/7_4.odb,Step-1,Increment      1: Step Time =    1.000,"PART-1-1",            52,          12.5,           30.,            0.,NA,NA,"",   107.492E-03,   57.8923E-03,  -90.5709E-03,   247.183E-06
C:/temp/dataset/8/7_4.odb,Step-1,Increment      1: Step Time =    1.000,"PART-1-1",            53,           10.,           30.,            0.,NA,NA,"",   112.553E-03,   57.2815E-03,  -96.8867E-03,   547.387E-06
C:/temp/dataset/8/7_4.odb,Step-1,Increment      1: Step Time =    1.000,"PART-1-1",            54,            5.,           30.,            0.,NA,NA,"",   135.588E-03,   61.7125E-03,  -120.730E-03,   4.51206E-03
C:/temp/dataset/8/7_4.odb,Step-1,Increment      1: Step Time =    1.000,"PART-1-1",            55,           2.5,           30.,            0.,NA,NA,"",   137.230E-03,   67.7198E-03,  -119.357E-03,   4.84086E-03
C:/temp/dataset/8/7_4.odb,Step-1,Increment      1: Step Time =    1.000,"PART-1-1",            56,          -2.5,           30.,            0.,NA,NA,"",   114.679E-03,   77.4693E-03,  -84.5561E-03,   1.16133E-03
C:/temp/dataset/8/7_4.odb,Step-1,Increment      1: Step Time =    1.000,"PART-1-1",            57,           -5.,           30.,            0.,NA,NA,"",   104.754E-03,   78.7444E-03,  -69.0844E-03,   147.981E-06
C:/temp/dataset/8/7_4.odb,Step-1,Increment      1: Step Time =    1.000,"PART-1-1",            58,          -7.5,           30.,            0.,NA,NA,"",   95.9363E-03,   78.5114E-03,  -55.1338E-03,   287.283E-06
C:/temp/dataset/8/7_4.odb,Step-1,Increment      1: Step Time =    1.000,"PART-1-1",            59,          -10.,           30.,            0.,NA,NA,"",   88.7641E-03,   77.7932E-03,  -42.7467E-03,   314.648E-06
C:/temp/dataset/8/7_4.odb,Step-1,Increment      1: Step Time =    1.000,"PART-1-1",            60,         -12.5,           30.,            0.,NA,NA,"",   83.4477E-03,   77.3323E-03,  -31.3566E-03,   104.763E-06
C:/temp/dataset/8/7_4.odb,Step-1,Increment      1: Step Time =    1.000,"PART-1-1",            61,          -15.,          27.5,            0.,NA,NA,"",   68.8598E-03,   65.8552E-03,  -20.1189E-03,   100.692E-06
C:/temp/dataset/8/7_4.odb,Step-1,Increment      1: Step Time =    1.000,"PART-1-1",            62,          -15.,           25.,            0.,NA,NA,"",   58.2433E-03,   54.4684E-03,  -20.6272E-03,   363.652E-06
C:/temp/dataset/8/7_4.odb,Step-1,Increment      1: Step Time =    1.000,"PART-1-1",            63,          -15.,          22.5,            0.,NA,NA,"",   48.9224E-03,   43.8476E-03,  -21.6977E-03,   621.984E-06
C:/temp/dataset/8/7_4.odb,Step-1,Increment      1: Step Time =    1.000,"PART-1-1",            64,          -15.,           20.,            0.,NA,NA,"",   41.7976E-03,   34.7044E-03,  -23.2946E-03,   770.383E-06
C:/temp/dataset/8/7_4.odb,Step-1,Increment      1: Step Time =    1.000,"PART-1-1",            65,          -15.,          17.5,            0.,NA,NA,"",   37.2700E-03,   27.5974E-03,  -25.0488E-03,   738.281E-06
C:/temp/dataset/8/7_4.odb,Step-1,Increment      1: Step Time =    1.000,"PART-1-1",            66,          -15.,           15.,            0.,NA,NA,"",   34.8349E-03,   22.6312E-03,  -26.4821E-03,   506.122E-06
C:/temp/dataset/8/7_4.odb,Step-1,Increment      1: Step Time =    1.000,"PART-1-1",            67,          -15.,          12.5,            0.,NA,NA,"",   33.4940E-03,   19.4742E-03,  -27.2508E-03,   172.999E-06
C:/temp/dataset/8/7_4.odb,Step-1,Increment      1: Step Time =    1.000,"PART-1-1",            68,          -15.,           10.,            0.,NA,NA,"",   32.4316E-03,   17.6370E-03,  -27.2166E-03,   201.764E-06
C:/temp/dataset/8/7_4.odb,Step-1,Increment      1: Step Time =    1.000,"PART-1-1",            69,          -15.,           7.5,            0.,NA,NA,"",   31.1187E-03,   16.5990E-03,  -26.3220E-03,   584.363E-06
C:/temp/dataset/8/7_4.odb,Step-1,Increment      1: Step Time =    1.000,"PART-1-1",            70,          -15.,            5.,            0.,NA,NA,"",   29.2716E-03,   15.8163E-03,  -24.6307E-03,   922.782E-06
C:/temp/dataset/8/7_4.odb,Step-1,Increment      1: Step Time =    1.000,"PART-1-1",            71,          -15.,           2.5,            0.,NA,NA,"",   26.7306E-03,   14.7656E-03,  -22.2822E-03,   1.14509E-03
C:/temp/dataset/8/7_4.odb,Step-1,Increment      1: Step Time =    1.000,"PART-1-1",            72,          -15.,            0.,            0.,NA,NA,"",   23.5888E-03,   13.0952E-03,  -19.6201E-03,   1.19602E-03
C:/temp/dataset/8/7_4.odb,Step-1,Increment      1: Step Time =    1.000,"PART-1-1",            73,          -15.,          -2.5,            0.,NA,NA,"",   20.1301E-03,   10.7909E-03,  -16.9935E-03,   1.10807E-03
C:/temp/dataset/8/7_4.odb,Step-1,Increment      1: Step Time =    1.000,"PART-1-1",            74,          -15.,           -5.,            0.,NA,NA,"",   16.7220E-03,   8.08242E-03,  -14.6389E-03,   967.141E-06
C:/temp/dataset/8/7_4.odb,Step-1,Increment      1: Step Time =    1.000,"PART-1-1",            75,          -15.,          -7.5,            0.,NA,NA,"",   13.7129E-03,   5.29042E-03,  -12.6513E-03,   822.347E-06
C:/temp/dataset/8/7_4.odb,Step-1,Increment      1: Step Time =    1.000,"PART-1-1",            76,          -15.,          -10.,            0.,NA,NA,"",   11.2759E-03,   2.67615E-03,  -10.9537E-03,   697.113E-06
C:/temp/dataset/8/7_4.odb,Step-1,Increment      1: Step Time =    1.000,"PART-1-1",            77,          -15.,         -12.5,            0.,NA,NA,"",   9.50593E-03,   394.774E-06,  -9.49773E-03,   598.925E-06
C:/temp/dataset/8/7_4.odb,Step-1,Increment      1: Step Time =    1.000,"PART-1-1",            78,          -15.,          -15.,            0.,NA,NA,"",   8.36983E-03,  -1.43186E-03,  -8.24644E-03,   518.185E-06
C:/temp/dataset/8/7_4.odb,Step-1,Increment      1: Step Time =    1.000,"PART-1-1",            79,          -15.,         -17.5,            0.,NA,NA,"",   7.63739E-03,  -2.68579E-03,  -7.14957E-03,   472.150E-06
C:/temp/dataset/8/7_4.odb,Step-1,Increment      1: Step Time =    1.000,"PART-1-1",            80,          -15.,          -20.,            0.,NA,NA,"",   6.93131E-03,  -3.29282E-03,  -6.09921E-03,   482.958E-06
C:/temp/dataset/8/7_4.odb,Step-1,Increment      1: Step Time =    1.000,"PART-1-1",            81,          -15.,         -22.5,            0.,NA,NA,"",   5.95442E-03,  -3.30915E-03,  -4.95021E-03,   552.764E-06
C:/temp/dataset/8/7_4.odb,Step-1,Increment      1: Step Time =    1.000,"PART-1-1",            82,          -15.,          -25.,            0.,NA,NA,"",   4.62524E-03,  -2.85794E-03,  -3.63663E-03,   602.923E-06
C:/temp/dataset/8/7_4.odb,Step-1,Increment      1: Step Time =    1.000,"PART-1-1",            83,          -15.,         -27.5,            0.,NA,NA,"",   2.92317E-03,  -1.97011E-03,  -2.15954E-03,   782.054E-06
C:/temp/dataset/8/7_4.odb,Step-1,Increment      1: Step Time =    1.000,"PART-1-1",            84,         -12.5,          -30.,            0.,NA,NA,"",            0.,  -325.362E-42,  -1.11998E-39,   629.703E-06
C:/temp/dataset/8/7_4.odb,Step-1,Increment      1: Step Time =    1.000,"PART-1-1",            85,          -10.,          -30.,            0.,NA,NA,"",            0.,  -392.166E-42,  -1.12796E-39,   622.038E-06
C:/temp/dataset/8/7_4.odb,Step-1,Increment      1: Step Time =    1.000,"PART-1-1",            86,          -7.5,          -30.,            0.,NA,NA,"",            0.,   230.142E-42,  -1.11939E-39,   547.307E-06
C:/temp/dataset/8/7_4.odb,Step-1,Increment      1: Step Time =    1.000,"PART-1-1",            87,           -5.,          -30.,            0.,NA,NA,"",            0.,  -128.425E-42,  -833.485E-42,   466.254E-06
C:/temp/dataset/8/7_4.odb,Step-1,Increment      1: Step Time =    1.000,"PART-1-1",            88,          -2.5,          -30.,            0.,NA,NA,"",            0.,  -143.092E-42,  -712.131E-42,   374.875E-06
C:/temp/dataset/8/7_4.odb,Step-1,Increment      1: Step Time =    1.000,"PART-1-1",            89,            0.,          -30.,            0.,NA,NA,"",            0.,   98.6514E-42,  -687.083E-42,   402.041E-06
C:/temp/dataset/8/7_4.odb,Step-1,Increment      1: Step Time =    1.000,"PART-1-1",            90,           2.5,          -30.,            0.,NA,NA,"",            0.,  -619.619E-42,  -1.12421E-39,   595.911E-06
C:/temp/dataset/8/7_4.odb,Step-1,Increment      1: Step Time =    1.000,"PART-1-1",            91,            5.,          -30.,            0.,NA,NA,"",            0.,   66.1819E-42,  -1.60227E-39,   853.146E-06
C:/temp/dataset/8/7_4.odb,Step-1,Increment      1: Step Time =    1.000,"PART-1-1",            92,           7.5,          -30.,            0.,NA,NA,"",            0.,  -589.916E-42,  -2.03827E-39,   1.11980E-03
C:/temp/dataset/8/7_4.odb,Step-1,Increment      1: Step Time =    1.000,"PART-1-1",            93,           10.,          -30.,            0.,NA,NA,"",            0.,   637.525E-42,  -2.86691E-39,   1.40867E-03
C:/temp/dataset/8/7_4.odb,Step-1,Increment      1: Step Time =    1.000,"PART-1-1",            94,          12.5,          -30.,            0.,NA,NA,"",            0.,   636.897E-42,  -2.88622E-39,   1.56117E-03
C:/temp/dataset/8/7_4.odb,Step-1,Increment      1: Step Time =    1.000,"PART-1-1",            95,           15.,      -27.5250,            0.,NA,NA,"",   7.50923E-03,   4.66603E-03,  -5.88360E-03,   2.36740E-03
C:/temp/dataset/8/7_4.odb,Step-1,Increment      1: Step Time =    1.000,"PART-1-1",            96,           15.,      -25.0500,            0.,NA,NA,"",   12.6292E-03,   7.11012E-03,  -10.4376E-03,   2.06440E-03
C:/temp/dataset/8/7_4.odb,Step-1,Increment      1: Step Time =    1.000,"PART-1-1",            97,           15.,      -22.5750,            0.,NA,NA,"",   17.6427E-03,   9.26766E-03,  -15.0125E-03,   2.04189E-03
C:/temp/dataset/8/7_4.odb,Step-1,Increment      1: Step Time =    1.000,"PART-1-1",            98,           15.,      -17.5875,            0.,NA,NA,"",   27.4691E-03,   13.5038E-03,  -23.9206E-03,   1.96929E-03
C:/temp/dataset/8/7_4.odb,Step-1,Increment      1: Step Time =    1.000,"PART-1-1",            99,           15.,      -15.0750,            0.,NA,NA,"",   32.3179E-03,   15.4557E-03,  -28.3825E-03,   2.00470E-03
C:/temp/dataset/8/7_4.odb,Step-1,Increment      1: Step Time =    1.000,"PART-1-1",           100,           15.,      -12.5625,            0.,NA,NA,"",   37.2596E-03,   17.3114E-03,  -32.9938E-03,   2.08431E-03
C:/temp/dataset/8/7_4.odb,Step-1,Increment      1: Step Time =    1.000,"PART-1-1",           101,           15.,      -7.53750,            0.,NA,NA,"",   47.8541E-03,   21.2250E-03,  -42.8896E-03,   2.31544E-03
C:/temp/dataset/8/7_4.odb,Step-1,Increment      1: Step Time =    1.000,"PART-1-1",           102,           15.,      -5.02500,            0.,NA,NA,"",   53.7659E-03,   23.6125E-03,  -48.3035E-03,   2.47393E-03
C:/temp/dataset/8/7_4.odb,Step-1,Increment      1: Step Time =    1.000,"PART-1-1",           103,           15.,      -2.51250,            0.,NA,NA,"",   60.2777E-03,   26.6631E-03,  -54.0599E-03,   2.61307E-03
C:/temp/dataset/8/7_4.odb,Step-1,Increment      1: Step Time =    1.000,"PART-1-1",           104,           15.,       2.47500,            0.,NA,NA,"",   74.9107E-03,   35.8444E-03,  -65.7784E-03,   2.46672E-03
C:/temp/dataset/8/7_4.odb,Step-1,Increment      1: Step Time =    1.000,"PART-1-1",           105,           15.,       4.95000,            0.,NA,NA,"",   82.4567E-03,   41.8900E-03,  -71.0235E-03,   2.17235E-03
C:/temp/dataset/8/7_4.odb,Step-1,Increment      1: Step Time =    1.000,"PART-1-1",           106,           15.,       7.42500,            0.,NA,NA,"",   89.6112E-03,   48.3670E-03,  -75.4375E-03,   1.77944E-03
C:/temp/dataset/8/7_4.odb,Step-1,Increment      1: Step Time =    1.000,"PART-1-1",           107,           15.,       12.4125,            0.,NA,NA,"",   101.490E-03,   60.2460E-03,  -81.6740E-03,   1.02626E-03
C:/temp/dataset/8/7_4.odb,Step-1,Increment      1: Step Time =    1.000,"PART-1-1",           108,           15.,       14.9250,            0.,NA,NA,"",   105.689E-03,   64.6170E-03,  -83.6344E-03,   715.282E-06
C:/temp/dataset/8/7_4.odb,Step-1,Increment      1: Step Time =    1.000,"PART-1-1",           109,           15.,       17.4375,            0.,NA,NA,"",   108.479E-03,   67.4162E-03,  -84.9867E-03,   500.234E-06
C:/temp/dataset/8/7_4.odb,Step-1,Increment      1: Step Time =    1.000,"PART-1-1",           110,           15.,       22.4625,            0.,NA,NA,"",   110.178E-03,   68.2075E-03,  -86.5265E-03,   128.749E-06
C:/temp/dataset/8/7_4.odb,Step-1,Increment      1: Step Time =    1.000,"PART-1-1",           111,           15.,       24.9750,            0.,NA,NA,"",   109.031E-03,   66.3642E-03,  -86.5076E-03,   159.564E-06
C:/temp/dataset/8/7_4.odb,Step-1,Increment      1: Step Time =    1.000,"PART-1-1",           112,           15.,       27.4875,            0.,NA,NA,"",   106.490E-03,   62.7722E-03,  -86.0214E-03,   188.527E-06
C:/temp/dataset/8/7_4.odb,Step-1,Increment      1: Step Time =    1.000,"PART-1-1",           113,       13.1072,       7.69700,            0.,NA,NA,"",   85.8594E-03,   47.5656E-03,  -71.4797E-03,   1.87982E-03
C:/temp/dataset/8/7_4.odb,Step-1,Increment      1: Step Time =    1.000,"PART-1-1",           114,       12.9209,      -22.7091,            0.,NA,NA,"",   14.9511E-03,   7.24768E-03,  -13.0770E-03,   2.01778E-03
C:/temp/dataset/8/7_4.odb,Step-1,Increment      1: Step Time =    1.000,"PART-1-1",           115,       12.1836,      -25.1316,            0.,NA,NA,"",   9.23123E-03,   4.44766E-03,  -8.08912E-03,   2.06532E-03
C:/temp/dataset/8/7_4.odb,Step-1,Increment      1: Step Time =    1.000,"PART-1-1",           116,       12.5983,   113.555E-03,            0.,NA,NA,"",   62.6824E-03,   28.2542E-03,  -55.9534E-03,   2.29094E-03
C:/temp/dataset/8/7_4.odb,Step-1,Increment      1: Step Time =    1.000,"PART-1-1",           117,       12.7905,       5.42944,            0.,NA,NA,"",   78.4787E-03,   41.0761E-03,  -66.8705E-03,   2.08765E-03
C:/temp/dataset/8/7_4.odb,Step-1,Increment      1: Step Time =    1.000,"PART-1-1",           118,       12.0087,       2.86964,            0.,NA,NA,"",   69.1559E-03,   33.6180E-03,  -60.4349E-03,   2.21209E-03
C:/temp/dataset/8/7_4.odb,Step-1,Increment      1: Step Time =    1.000,"PART-1-1",           119,       6.98133,      -9.77136,            0.,NA,NA,"",   33.1400E-03,   12.1225E-03,  -30.8433E-03,   1.94318E-03
C:/temp/dataset/8/7_4.odb,Step-1,Increment      1: Step Time =    1.000,"PART-1-1",           120,       7.90844,      -27.9171,            0.,NA,NA,"",   2.11203E-03,   65.9851E-06,  -2.11100E-03,   1.30324E-03
C:/temp/dataset/8/7_4.odb,Step-1,Increment      1: Step Time =    1.000,"PART-1-1",           121,      -2.46872,      -27.6632,            0.,NA,NA,"",   600.315E-06,   98.7360E-06,  -592.140E-06,   363.066E-06
C:/temp/dataset/8/7_4.odb,Step-1,Increment      1: Step Time =    1.000,"PART-1-1",           122,      -12.5126,      -12.5666,            0.,NA,NA,"",   11.3642E-03,   1.11202E-03,  -11.3097E-03,   794.697E-06
C:/temp/dataset/8/7_4.odb,Step-1,Increment      1: Step Time =    1.000,"PART-1-1",           123,      -12.5815,       17.4815,            0.,NA,NA,"",   41.3545E-03,   27.1479E-03,  -31.1959E-03,   237.000E-06
C:/temp/dataset/8/7_4.odb,Step-1,Increment      1: Step Time =    1.000,"PART-1-1",           124,      -2.62887,      -2.48638,            0.,NA,NA,"",   34.4465E-03,   15.9702E-03,  -30.5207E-03,   191.456E-06
C:/temp/dataset/8/7_4.odb,Step-1,Increment      1: Step Time =    1.000,"PART-1-1",           125,      -2.40475,       2.52951,            0.,NA,NA,"",   38.3430E-03,   22.0551E-03,  -31.3649E-03,   400.497E-06
C:/temp/dataset/8/7_4.odb,Step-1,Increment      1: Step Time =    1.000,"PART-1-1",           126,       2.45017,      -2.57003,            0.,NA,NA,"",   41.0989E-03,   16.1414E-03,  -37.7964E-03,   166.056E-06
C:/temp/dataset/8/7_4.odb,Step-1,Increment      1: Step Time =    1.000,"PART-1-1",           127,       2.64402,       2.44720,            0.,NA,NA,"",   45.7247E-03,   23.7662E-03,  -39.0630E-03,   373.070E-06
C:/temp/dataset/8/7_4.odb,Step-1,Increment      1: Step Time =    1.000,"PART-1-1",           128,       7.27469,       27.6230,            0.,NA,NA,"",   125.298E-03,   63.5512E-03,  -107.985E-03,   3.66323E-03
C:/temp/dataset/8/7_4.odb,Step-1,Increment      1: Step Time =    1.000,"PART-1-1",           129,       2.48679,       22.6352,            0.,NA,NA,"",   117.976E-03,   52.9118E-03,  -105.445E-03,   1.54742E-03
C:/temp/dataset/8/7_4.odb,Step-1,Increment      1: Step Time =    1.000,"PART-1-1",           130,   4.73057E-03,       27.5452,            0.,NA,NA,"",   120.068E-03,   62.1557E-03,  -102.728E-03,   3.10499E-03
C:/temp/dataset/8/7_4.odb,Step-1,Increment      1: Step Time =    1.000,"PART-1-1",           131,      -2.67861,       22.9024,            0.,NA,NA,"",   96.7232E-03,   49.0036E-03,  -83.3907E-03,   2.74444E-03
C:/temp/dataset/8/7_4.odb,Step-1,Increment      1: Step Time =    1.000,"PART-1-1",           132,      -12.4942,       19.9650,            0.,NA,NA,"",   46.3548E-03,   34.0868E-03,  -31.4142E-03,   90.8063E-06
C:/temp/dataset/8/7_4.odb,Step-1,Increment      1: Step Time =    1.000,"PART-1-1",           133,      -7.56680,       17.4386,            0.,NA,NA,"",   53.4599E-03,   28.0786E-03,  -45.4923E-03,   1.92224E-03
C:/temp/dataset/8/7_4.odb,Step-1,Increment      1: Step Time =    1.000,"PART-1-1",           134,       7.64811,       17.7092,            0.,NA,NA,"",   104.483E-03,   62.8564E-03,  -83.4616E-03,   2.68250E-03
C:/temp/dataset/8/7_4.odb,Step-1,Increment      1: Step Time =    1.000,"PART-1-1",           135,      -9.58788,      -27.7112,            0.,NA,NA,"",   1.31493E-03,  -481.017E-06,  -1.22379E-03,   701.616E-06
C:/temp/dataset/8/7_4.odb,Step-1,Increment      1: Step Time =    1.000,"PART-1-1",           136,       4.77230,      -2.62442,            0.,NA,NA,"",   43.3920E-03,   16.6572E-03,  -40.0675E-03,   943.134E-06
C:/temp/dataset/8/7_4.odb,Step-1,Increment      1: Step Time =    1.000,"PART-1-1",           137,       7.77605,      -12.2161,            0.,NA,NA,"",   29.3729E-03,   10.9853E-03,  -27.2413E-03,   1.98434E-03
C:/temp/dataset/8/7_4.odb,Step-1,Increment      1: Step Time =    1.000,"PART-1-1",           138,       7.25866,      -19.5166,            0.,NA,NA,"",   14.8351E-03,   5.54135E-03,  -13.7613E-03,   1.72960E-03
C:/temp/dataset/8/7_4.odb,Step-1,Increment      1: Step Time =    1.000,"PART-1-1",           139,      -4.84221,      -22.7118,            0.,NA,NA,"",   3.22855E-03,   385.856E-06,  -3.20541E-03,   907.919E-06
C:/temp/dataset/8/7_4.odb,Step-1,Increment      1: Step Time =    1.000,"PART-1-1",           140,      -12.1835,      -27.1471,            0.,NA,NA,"",   2.18225E-03,  -1.31023E-03,  -1.74514E-03,   814.770E-06
C:/temp/dataset/8/7_4.odb,Step-1,Increment      1: Step Time =    1.000,"PART-1-1",           141,      -12.5060,       10.0400,            0.,NA,NA,"",   34.5447E-03,   18.0786E-03,  -29.4364E-03,   751.314E-06
C:/temp/dataset/8/7_4.odb,Step-1,Increment      1: Step Time =    1.000,"PART-1-1",           142,      -12.8419,       4.62256,            0.,NA,NA,"",   30.4700E-03,   16.6078E-03,  -25.5461E-03,   972.723E-06
C:/temp/dataset/8/7_4.odb,Step-1,Increment      1: Step Time =    1.000,"PART-1-1",           143,      -12.8499,  -39.9835E-03,            0.,NA,NA,"",   25.5681E-03,   14.1587E-03,  -21.2899E-03,   1.04855E-03
C:/temp/dataset/8/7_4.odb,Step-1,Increment      1: Step Time =    1.000,"PART-1-1",           144,      -13.3239,      -5.02776,            0.,NA,NA,"",   18.5421E-03,   8.76956E-03,  -16.3372E-03,   952.801E-06
C:/temp/dataset/8/7_4.odb,Step-1,Increment      1: Step Time =    1.000,"PART-1-1",           145,      -7.45277,      -10.1617,            0.,NA,NA,"",   17.9125E-03,   5.48692E-03,  -17.0514E-03,   1.11672E-03
C:/temp/dataset/8/7_4.odb,Step-1,Increment      1: Step Time =    1.000,"PART-1-1",           146,  -27.8758E-03,      -2.52525,            0.,NA,NA,"",   37.8744E-03,   16.0442E-03,  -34.3082E-03,   143.249E-06
C:/temp/dataset/8/7_4.odb,Step-1,Increment      1: Step Time =    1.000,"PART-1-1",           147,       4.82974,       22.7243,            0.,NA,NA,"",   117.932E-03,   56.8460E-03,  -103.328E-03,   3.85435E-03
C:/temp/dataset/8/7_4.odb,Step-1,Increment      1: Step Time =    1.000,"PART-1-1",           148,       7.38047,       9.75754,            0.,NA,NA,"",   80.5675E-03,   47.9727E-03,  -64.7283E-03,   2.43948E-03
C:/temp/dataset/8/7_4.odb,Step-1,Increment      1: Step Time =    1.000,"PART-1-1",           149,       7.06669,       7.50812,            0.,NA,NA,"",   72.5918E-03,   41.6584E-03,  -59.4487E-03,   2.21527E-03
C:/temp/dataset/8/7_4.odb,Step-1,Increment      1: Step Time =    1.000,"PART-1-1",           150,   54.6531E-03,       2.48775,            0.,NA,NA,"",   41.5090E-03,   22.9175E-03,  -34.6091E-03,   399.930E-06
C:/temp/dataset/8/7_4.odb,Step-1,Increment      1: Step Time =    1.000,"PART-1-1",           151,      -4.69755,       2.58666,            0.,NA,NA,"",   36.2474E-03,   21.0500E-03,  -29.5088E-03,   678.640E-06
C:/temp/dataset/8/7_4.odb,Step-1,Increment      1: Step Time =    1.000,"PART-1-1",           152,      -12.4531,       27.7137,            0.,NA,NA,"",   73.8287E-03,   66.7849E-03,  -31.4714E-03,   225.828E-06
C:/temp/dataset/8/7_4.odb,Step-1,Increment      1: Step Time =    1.000,"PART-1-1",           153,      -11.8780,       25.1349,            0.,NA,NA,"",   64.4594E-03,   54.8422E-03,  -33.8725E-03,   265.339E-06
C:/temp/dataset/8/7_4.odb,Step-1,Increment      1: Step Time =    1.000,"PART-1-1",           154,      -12.3074,       22.4604,            0.,NA,NA,"",   53.8448E-03,   43.2843E-03,  -32.0271E-03,   218.434E-06
C:/temp/dataset/8/7_4.odb,Step-1,Increment      1: Step Time =    1.000,"PART-1-1",           155,      -7.54353,       19.8014,            0.,NA,NA,"",   59.4412E-03,   33.9708E-03,  -48.7775E-03,   1.15572E-03
C:/temp/dataset/8/7_4.odb,Step-1,Increment      1: Step Time =    1.000,"PART-1-1",           156,   45.4396E-03,       22.6227,            0.,NA,NA,"",   110.675E-03,   50.0798E-03,  -98.6962E-03,   1.65946E-03
C:/temp/dataset/8/7_4.odb,Step-1,Increment      1: Step Time =    1.000,"PART-1-1",           157,       9.91939,       27.0382,            0.,NA,NA,"",   115.993E-03,   64.0151E-03,  -96.7284E-03,   1.51511E-03
C:/temp/dataset/8/7_4.odb,Step-1,Increment      1: Step Time =    1.000,"PART-1-1",           158,       4.86771,       27.6907,            0.,NA,NA,"",   131.823E-03,   62.6725E-03,  -115.972E-03,   3.61363E-03
C:/temp/dataset/8/7_4.odb,Step-1,Increment      1: Step Time =    1.000,"PART-1-1",           159,       2.46310,       27.6480,            0.,NA,NA,"",   130.412E-03,   61.9291E-03,  -114.769E-03,   3.18776E-03
C:/temp/dataset/8/7_4.odb,Step-1,Increment      1: Step Time =    1.000,"PART-1-1",           160,      -2.80472,       27.0882,            0.,NA,NA,"",   104.307E-03,   62.6834E-03,  -83.3706E-03,   2.14186E-03
C:/temp/dataset/8/7_4.odb,Step-1,Increment      1: Step Time =    1.000,"PART-1-1",           161,      -5.48605,       27.7688,            0.,NA,NA,"",   94.3616E-03,   67.1195E-03,  -66.3256E-03,   897.354E-06
C:/temp/dataset/8/7_4.odb,Step-1,Increment      1: Step Time =    1.000,"PART-1-1",           162,      -7.83752,       28.0673,            0.,NA,NA,"",   86.9317E-03,   68.7663E-03,  -53.1819E-03,   268.607E-06
C:/temp/dataset/8/7_4.odb,Step-1,Increment      1: Step Time =    1.000,"PART-1-1",           163,      -7.55682,       15.0000,            0.,NA,NA,"",   48.6034E-03,   24.1428E-03,  -42.1831E-03,   1.76998E-03
C:/temp/dataset/8/7_4.odb,Step-1,Increment      1: Step Time =    1.000,"PART-1-1",           164,      -12.5962,       15.0033,            0.,NA,NA,"",   38.2380E-03,   22.4585E-03,  -30.9478E-03,   443.778E-06
C:/temp/dataset/8/7_4.odb,Step-1,Increment      1: Step Time =    1.000,"PART-1-1",           165,      -7.55941,       12.5503,            0.,NA,NA,"",   44.3175E-03,   21.5965E-03,  -38.6992E-03,   1.54397E-03
C:/temp/dataset/8/7_4.odb,Step-1,Increment      1: Step Time =    1.000,"PART-1-1",           166,      -12.5765,       12.5372,            0.,NA,NA,"",   36.1597E-03,   19.6131E-03,  -30.3785E-03,   601.749E-06
C:/temp/dataset/8/7_4.odb,Step-1,Increment      1: Step Time =    1.000,"PART-1-1",           167,      -7.59139,       10.0650,            0.,NA,NA,"",   40.8702E-03,   20.0972E-03,  -35.5877E-03,   1.36676E-03
C:/temp/dataset/8/7_4.odb,Step-1,Increment      1: Step Time =    1.000,"PART-1-1",           168,      -7.88191,       7.28317,            0.,NA,NA,"",   37.6959E-03,   19.3230E-03,  -32.3666E-03,   1.19047E-03
C:/temp/dataset/8/7_4.odb,Step-1,Increment      1: Step Time =    1.000,"PART-1-1",           169,      -12.0831,       7.21074,            0.,NA,NA,"",   33.1242E-03,   17.4414E-03,  -28.1604E-03,   942.474E-06
C:/temp/dataset/8/7_4.odb,Step-1,Increment      1: Step Time =    1.000,"PART-1-1",           170,      -13.1416,       2.31003,            0.,NA,NA,"",   28.0170E-03,   15.5795E-03,  -23.2859E-03,   1.03897E-03
C:/temp/dataset/8/7_4.odb,Step-1,Increment      1: Step Time =    1.000,"PART-1-1",           171,      -12.2759,      -2.89935,            0.,NA,NA,"",   22.4018E-03,   11.6578E-03,  -19.1294E-03,   1.00216E-03
C:/temp/dataset/8/7_4.odb,Step-1,Increment      1: Step Time =    1.000,"PART-1-1",           172,      -7.56671,      -5.67297,            0.,NA,NA,"",   23.4512E-03,   10.3175E-03,  -21.0596E-03,   886.461E-06
C:/temp/dataset/8/7_4.odb,Step-1,Increment      1: Step Time =    1.000,"PART-1-1",           173,      -7.39223,      -7.81567,            0.,NA,NA,"",   20.8822E-03,   7.92855E-03,  -19.3184E-03,   1.04342E-03
C:/temp/dataset/8/7_4.odb,Step-1,Increment      1: Step Time =    1.000,"PART-1-1",           174,      -12.2966,      -7.15451,            0.,NA,NA,"",   16.9297E-03,   6.71220E-03,  -15.5423E-03,   901.855E-06
C:/temp/dataset/8/7_4.odb,Step-1,Increment      1: Step Time =    1.000,"PART-1-1",           175,      -12.4694,      -9.99482,            0.,NA,NA,"",   13.6768E-03,   3.54961E-03,  -13.2081E-03,   843.303E-06
C:/temp/dataset/8/7_4.odb,Step-1,Increment      1: Step Time =    1.000,"PART-1-1",           176,      -7.49855,      -12.5983,            0.,NA,NA,"",   14.8979E-03,   3.22157E-03,  -14.5454E-03,   1.15098E-03
C:/temp/dataset/8/7_4.odb,Step-1,Increment      1: Step Time =    1.000,"PART-1-1",           177,      -7.51831,      -15.1107,            0.,NA,NA,"",   11.9362E-03,   1.23577E-03,  -11.8720E-03,   1.21857E-03
C:/temp/dataset/8/7_4.odb,Step-1,Increment      1: Step Time =    1.000,"PART-1-1",           178,      -12.5129,      -15.0992,            0.,NA,NA,"",   9.61022E-03,  -791.342E-06,  -9.57759E-03,   746.146E-06
C:/temp/dataset/8/7_4.odb,Step-1,Increment      1: Step Time =    1.000,"PART-1-1",           179,      -7.51265,      -17.6713,            0.,NA,NA,"",   9.28382E-03,  -303.127E-06,  -9.27887E-03,   1.18760E-03
C:/temp/dataset/8/7_4.odb,Step-1,Increment      1: Step Time =    1.000,"PART-1-1",           180,      -12.5452,      -17.6264,            0.,NA,NA,"",   8.20904E-03,  -2.09120E-03,  -7.93821E-03,   700.677E-06
C:/temp/dataset/8/7_4.odb,Step-1,Increment      1: Step Time =    1.000,"PART-1-1",           181,      -12.7276,      -20.0809,            0.,NA,NA,"",   6.93902E-03,  -2.71211E-03,  -6.38706E-03,   682.061E-06
C:/temp/dataset/8/7_4.odb,Step-1,Increment      1: Step Time =    1.000,"PART-1-1",           182,      -13.0628,      -22.3163,            0.,NA,NA,"",   5.72127E-03,  -2.79132E-03,  -4.99414E-03,   688.927E-06
C:/temp/dataset/8/7_4.odb,Step-1,Increment      1: Step Time =    1.000,"PART-1-1",           183,      -7.23303,      -27.7750,            0.,NA,NA,"",   1.06104E-03,  -80.7880E-06,  -1.05796E-03,   615.757E-06
C:/temp/dataset/8/7_4.odb,Step-1,Increment      1: Step Time =    1.000,"PART-1-1",           184,      -4.86055,      -27.7327,            0.,NA,NA,"",   849.778E-06,   150.702E-06,  -836.308E-06,   481.527E-06
C:/temp/dataset/8/7_4.odb,Step-1,Increment      1: Step Time =    1.000,"PART-1-1",           185,      -2.50927,      -22.6041,            0.,NA,NA,"",   1.56352E-03,   610.939E-06,  -1.43922E-03,   542.193E-06
C:/temp/dataset/8/7_4.odb,Step-1,Increment      1: Step Time =    1.000,"PART-1-1",           186,  -77.0891E-03,      -22.5757,            0.,NA,NA,"",   1.12000E-03,   569.475E-06,  -964.413E-06,   186.240E-06
C:/temp/dataset/8/7_4.odb,Step-1,Increment      1: Step Time =    1.000,"PART-1-1",           187,  -14.9764E-03,      -27.4978,            0.,NA,NA,"",   608.251E-06,  -215.465E-06,  -568.809E-06,   366.737E-06
C:/temp/dataset/8/7_4.odb,Step-1,Increment      1: Step Time =    1.000,"PART-1-1",           188,       2.64148,      -22.7823,            0.,NA,NA,"",   2.37196E-03,   393.234E-06,  -2.33914E-03,   538.575E-06
C:/temp/dataset/8/7_4.odb,Step-1,Increment      1: Step Time =    1.000,"PART-1-1",           189,       2.81336,      -26.9767,            0.,NA,NA,"",   1.36079E-03,  -571.430E-06,  -1.23500E-03,   548.218E-06
C:/temp/dataset/8/7_4.odb,Step-1,Increment      1: Step Time =    1.000,"PART-1-1",           190,       5.52532,      -27.5935,            0.,NA,NA,"",   1.82995E-03,  -445.388E-06,  -1.77493E-03,   956.219E-06
C:/temp/dataset/8/7_4.odb,Step-1,Increment      1: Step Time =    1.000,"PART-1-1",           191,       10.2466,      -28.0300,            0.,NA,NA,"",   2.59725E-03,   814.538E-06,  -2.46622E-03,   1.62646E-03
C:/temp/dataset/8/7_4.odb,Step-1,Increment      1: Step Time =    1.000,"PART-1-1",           192,       7.32380,      -17.2830,            0.,NA,NA,"",   19.1612E-03,   7.19720E-03,  -17.7582E-03,   2.05881E-03
C:/temp/dataset/8/7_4.odb,Step-1,Increment      1: Step Time =    1.000,"PART-1-1",           193,       7.51109,      -14.8717,            0.,NA,NA,"",   23.9481E-03,   8.94464E-03,  -22.2149E-03,   2.04145E-03
C:/temp/dataset/8/7_4.odb,Step-1,Increment      1: Step Time =    1.000,"PART-1-1",           194,       6.94800,      -7.47664,            0.,NA,NA,"",   37.3465E-03,   14.0197E-03,  -34.6152E-03,   1.81476E-03
C:/temp/dataset/8/7_4.odb,Step-1,Increment      1: Step Time =    1.000,"PART-1-1",           195,       7.18328,       5.40883,            0.,NA,NA,"",   66.0835E-03,   35.5644E-03,  -55.6974E-03,   2.09385E-03
C:/temp/dataset/8/7_4.odb,Step-1,Increment      1: Step Time =    1.000,"PART-1-1",           196,       8.12432,       12.3313,            0.,NA,NA,"",   90.1748E-03,   54.8966E-03,  -71.5393E-03,   2.47677E-03
C:/temp/dataset/8/7_4.odb,Step-1,Increment      1: Step Time =    1.000,"PART-1-1",           197,       7.72271,       15.1164,            0.,NA,NA,"",   97.8865E-03,   59.7883E-03,  -77.5057E-03,   2.74966E-03
C:/temp/dataset/8/7_4.odb,Step-1,Increment      1: Step Time =    1.000,"PART-1-1",           198,       12.5747,       27.4046,            0.,NA,NA,"",   110.133E-03,   63.0553E-03,  -90.2954E-03,   159.225E-06
C:/temp/dataset/8/7_4.odb,Step-1,Increment      1: Step Time =    1.000,"PART-1-1",           199,       12.7332,       20.1953,            0.,NA,NA,"",   109.759E-03,   67.9088E-03,  -86.2285E-03,   999.911E-06
C:/temp/dataset/8/7_4.odb,Step-1,Increment      1: Step Time =    1.000,"PART-1-1",           200,       12.7232,      -12.7379,            0.,NA,NA,"",   34.2996E-03,   15.0664E-03,  -30.8134E-03,   2.05886E-03
C:/temp/dataset/8/7_4.odb,Step-1,Increment      1: Step Time =    1.000,"PART-1-1",           201,       12.5978,      -7.87838,            0.,NA,NA,"",   43.9574E-03,   18.5372E-03,  -39.8576E-03,   2.14920E-03
C:/temp/dataset/8/7_4.odb,Step-1,Increment      1: Step Time =    1.000,"PART-1-1",           202,       12.5520,      -15.1937,            0.,NA,NA,"",   29.3028E-03,   13.1584E-03,  -26.1823E-03,   2.01206E-03
C:/temp/dataset/8/7_4.odb,Step-1,Increment      1: Step Time =    1.000,"PART-1-1",           203,       12.2949,      -17.8873,            0.,NA,NA,"",   23.7915E-03,   10.8786E-03,  -21.1587E-03,   1.96974E-03
C:/temp/dataset/8/7_4.odb,Step-1,Increment      1: Step Time =    1.000,"PART-1-1",           204,       11.9648,      -5.07588,            0.,NA,NA,"",   48.9764E-03,   20.3979E-03,  -44.5265E-03,   2.16304E-03
C:/temp/dataset/8/7_4.odb,Step-1,Increment      1: Step Time =    1.000,"PART-1-1",           205,       12.2814,       12.3946,            0.,NA,NA,"",   96.8660E-03,   58.6395E-03,  -77.1001E-03,   1.64203E-03
C:/temp/dataset/8/7_4.odb,Step-1,Increment      1: Step Time =    1.000,"PART-1-1",           206,       12.5647,       15.1089,            0.,NA,NA,"",   103.056E-03,   63.7797E-03,  -80.9487E-03,   1.37516E-03
C:/temp/dataset/8/7_4.odb,Step-1,Increment      1: Step Time =    1.000,"PART-1-1",           207,       13.0607,       22.5349,            0.,NA,NA,"",   110.954E-03,   67.8080E-03,  -87.8229E-03,   788.473E-06
C:/temp/dataset/8/7_4.odb,Step-1,Increment      1: Step Time =    1.000,"PART-1-1",           208,       12.7200,      -2.36234,            0.,NA,NA,"",   56.5354E-03,   24.3436E-03,  -51.0258E-03,   2.29721E-03
C:/temp/dataset/8/7_4.odb,Step-1,Increment      1: Step Time =    1.000,"PART-1-1",           209,       12.7952,      -10.3683,            0.,NA,NA,"",   39.1098E-03,   16.8288E-03,  -35.3039E-03,   2.10737E-03
C:/temp/dataset/8/7_4.odb,Step-1,Increment      1: Step Time =    1.000,"PART-1-1",           210,       12.9896,      -20.3905,            0.,NA,NA,"",   19.6632E-03,   9.36029E-03,  -17.2924E-03,   1.98691E-03
C:/temp/dataset/8/7_4.odb,Step-1,Increment      1: Step Time =    1.000,"PART-1-1",           211,       13.0547,       9.94817,            0.,NA,NA,"",   92.0025E-03,   53.4537E-03,  -74.8810E-03,   1.67721E-03
C:/temp/dataset/8/7_4.odb,Step-1,Increment      1: Step Time =    1.000,"PART-1-1",           212,       12.5883,       17.6584,            0.,NA,NA,"",   107.082E-03,   66.6900E-03,  -83.7794E-03,   1.18589E-03
C:/temp/dataset/8/7_4.odb,Step-1,Increment      1: Step Time =    1.000,"PART-1-1",           213,       12.5551,      -27.7203,            0.,NA,NA,"",   4.45039E-03,   2.44728E-03,  -3.71709E-03,   2.14241E-03
C:/temp/dataset/8/7_4.odb,Step-1,Increment      1: Step Time =    1.000,"PART-1-1",           214,       9.89421,       4.65062,            0.,NA,NA,"",   69.9058E-03,   36.1189E-03,  -59.8518E-03,   2.16419E-03
C:/temp/dataset/8/7_4.odb,Step-1,Increment      1: Step Time =    1.000,"PART-1-1",           215,       10.7595,       6.33224,            0.,NA,NA,"",   76.8666E-03,   41.7165E-03,  -64.5616E-03,   2.10076E-03
C:/temp/dataset/8/7_4.odb,Step-1,Increment      1: Step Time =    1.000,"PART-1-1",           216,       9.75763,      -23.6493,            0.,NA,NA,"",   9.84710E-03,   3.65004E-03,  -9.14563E-03,   1.89145E-03
C:/temp/dataset/8/7_4.odb,Step-1,Increment      1: Step Time =    1.000,"PART-1-1",           217,       9.53699,       1.63659,            0.,NA,NA,"",   60.4125E-03,   28.0584E-03,  -53.5014E-03,   2.12601E-03
C:/temp/dataset/8/7_4.odb,Step-1,Increment      1: Step Time =    1.000,"PART-1-1",           218,       11.2350,       8.14750,            0.,NA,NA,"",   83.3203E-03,   47.2338E-03,  -68.6385E-03,   2.00663E-03
C:/temp/dataset/8/7_4.odb,Step-1,Increment      1: Step Time =    1.000,"PART-1-1",           219,       11.2098,      -20.8622,            0.,NA,NA,"",   16.7607E-03,   7.38691E-03,  -15.0450E-03,   1.95305E-03
C:/temp/dataset/8/7_4.odb,Step-1,Increment      1: Step Time =    1.000,"PART-1-1",           220,       11.0603,      -2.05600,            0.,NA,NA,"",   54.2167E-03,   23.0447E-03,  -49.0754E-03,   2.14419E-03
C:/temp/dataset/8/7_4.odb,Step-1,Increment      1: Step Time =    1.000,"PART-1-1",           221,       5.60149,       2.31416,            0.,NA,NA,"",   52.7390E-03,   25.2952E-03,  -46.2769E-03,   1.55945E-03
C:/temp/dataset/8/7_4.odb,Step-1,Increment      1: Step Time =    1.000,"PART-1-1",           222,      -6.74223,       2.51529,            0.,NA,NA,"",   34.5534E-03,   19.6705E-03,  -28.4079E-03,   1.11835E-03
C:/temp/dataset/8/7_4.odb,Step-1,Increment      1: Step Time =    1.000,"PART-1-1",           223,       7.48229,       20.3552,            0.,NA,NA,"",   109.981E-03,   62.7416E-03,  -90.3286E-03,   2.97536E-03
C:/temp/dataset/8/7_4.odb,Step-1,Increment      1: Step Time =    1.000,"PART-1-1",           224,      -7.41549,      -20.2834,            0.,NA,NA,"",   6.79151E-03,  -978.037E-06,  -6.72072E-03,   946.796E-06
C:/temp/dataset/8/7_4.odb,Step-1,Increment      1: Step Time =    1.000,"PART-1-1",           225,       7.68091,      -4.90617,            0.,NA,NA,"",   42.8561E-03,   16.7094E-03,  -39.4644E-03,   1.73780E-03
C:/temp/dataset/8/7_4.odb,Step-1,Increment      1: Step Time =    1.000,"PART-1-1",           226,       7.32158,      -21.5125,            0.,NA,NA,"",   11.2032E-03,   3.55669E-03,  -10.6236E-03,   1.87275E-03
C:/temp/dataset/8/7_4.odb,Step-1,Increment      1: Step Time =    1.000,"PART-1-1",           227,      -5.66463,      -2.34251,            0.,NA,NA,"",   30.2448E-03,   15.4944E-03,  -25.9745E-03,   752.317E-06
C:/temp/dataset/8/7_4.odb,Step-1,Increment      1: Step Time =    1.000,"PART-1-1",           228,      -7.47529,       21.9155,            0.,NA,NA,"",   66.4019E-03,   42.0487E-03,  -51.3918E-03,   1.36347E-03
C:/temp/dataset/8/7_4.odb,Step-1,Increment      1: Step Time =    1.000,"PART-1-1",           229,      -10.1614,       28.1082,            0.,NA,NA,"",   80.4793E-03,   68.7855E-03,  -41.7790E-03,   156.697E-06
C:/temp/dataset/8/7_4.odb,Step-1,Increment      1: Step Time =    1.000,"PART-1-1",           230,      -12.9405,      -24.6359,            0.,NA,NA,"",   4.19986E-03,  -2.33951E-03,  -3.48792E-03,   768.172E-06
C:/temp/dataset/8/7_4.odb,Step-1,Increment      1: Step Time =    1.000,"PART-1-1",           231,       8.38159,      -7.75756,            0.,NA,NA,"",   38.5832E-03,   14.9320E-03,  -35.5766E-03,   1.87717E-03
C:/temp/dataset/8/7_4.odb,Step-1,Increment      1: Step Time =    1.000,"PART-1-1",           232,       2.49333,  -53.6144E-03,            0.,NA,NA,"",   42.9370E-03,   19.5317E-03,  -38.2374E-03,   262.096E-06
C:/temp/dataset/8/7_4.odb,Step-1,Increment      1: Step Time =    1.000,"PART-1-1",           233,       10.3438,       10.8317,            0.,NA,NA,"",   89.5504E-03,   53.5231E-03,  -71.7952E-03,   2.05829E-03
C:/temp/dataset/8/7_4.odb,Step-1,Increment      1: Step Time =    1.000,"PART-1-1",           234,       2.48676,       25.2065,            0.,NA,NA,"",   123.389E-03,   57.2635E-03,  -109.296E-03,   2.21167E-03
C:/temp/dataset/8/7_4.odb,Step-1,Increment      1: Step Time =    1.000,"PART-1-1",           235,      -1.68066,       25.0633,            0.,NA,NA,"",   106.366E-03,   55.5646E-03,  -90.6986E-03,   2.52902E-03
C:/temp/dataset/8/7_4.odb,Step-1,Increment      1: Step Time =    1.000,"PART-1-1",           236,       8.59823,       25.2987,            0.,NA,NA,"",   118.541E-03,   64.5333E-03,  -99.4354E-03,   2.80909E-03
C:/temp/dataset/8/7_4.odb,Step-1,Increment      1: Step Time =    1.000,"PART-1-1",           237,      -9.10993,      -25.5879,            0.,NA,NA,"",   2.71696E-03,  -824.429E-06,  -2.58886E-03,   807.040E-06
C:/temp/dataset/8/7_4.odb,Step-1,Increment      1: Step Time =    1.000,"PART-1-1",           238,   13.3068E-03,  -28.0450E-03,            0.,NA,NA,"",   39.4137E-03,   19.3176E-03,  -34.3551E-03,   110.704E-06
C:/temp/dataset/8/7_4.odb,Step-1,Increment      1: Step Time =    1.000,"PART-1-1",           239,      -6.37923,       25.7100,            0.,NA,NA,"",   84.0398E-03,   58.1393E-03,  -60.6837E-03,   1.17609E-03
C:/temp/dataset/8/7_4.odb,Step-1,Increment      1: Step Time =    1.000,"PART-1-1",           240,      -10.0909,       17.4402,            0.,NA,NA,"",   46.8093E-03,   27.1450E-03,  -38.1348E-03,   821.971E-06
C:/temp/dataset/8/7_4.odb,Step-1,Increment      1: Step Time =    1.000,"PART-1-1",           241,      -10.1005,       12.5885,            0.,NA,NA,"",   40.0703E-03,   20.3212E-03,  -34.5351E-03,   1.09906E-03
C:/temp/dataset/8/7_4.odb,Step-1,Increment      1: Step Time =    1.000,"PART-1-1",           242,      -9.86842,       5.52051,            0.,NA,NA,"",   34.1691E-03,   18.2224E-03,  -28.9045E-03,   1.17074E-03
C:/temp/dataset/8/7_4.odb,Step-1,Increment      1: Step Time =    1.000,"PART-1-1",           243,      -11.6255,       2.21973,            0.,NA,NA,"",   29.3172E-03,   16.3013E-03,  -24.3673E-03,   1.04668E-03
C:/temp/dataset/8/7_4.odb,Step-1,Increment      1: Step Time =    1.000,"PART-1-1",           244,      -10.6231,      -5.01162,            0.,NA,NA,"",   21.2053E-03,   9.91254E-03,  -18.7458E-03,   945.874E-06
C:/temp/dataset/8/7_4.odb,Step-1,Increment      1: Step Time =    1.000,"PART-1-1",           245,      -9.74824,      -1.61604,            0.,NA,NA,"",   26.5429E-03,   14.2805E-03,  -22.3740E-03,   999.112E-06
C:/temp/dataset/8/7_4.odb,Step-1,Increment      1: Step Time =    1.000,"PART-1-1",           246,      -9.39443,      -6.20426,            0.,NA,NA,"",   20.8755E-03,   8.95554E-03,  -18.8569E-03,   936.336E-06
C:/temp/dataset/8/7_4.odb,Step-1,Increment      1: Step Time =    1.000,"PART-1-1",           247,      -9.97662,      -10.1599,            0.,NA,NA,"",   15.6466E-03,   4.35127E-03,  -15.0294E-03,   965.965E-06
C:/temp/dataset/8/7_4.odb,Step-1,Increment      1: Step Time =    1.000,"PART-1-1",           248,      -10.0249,      -15.1454,            0.,NA,NA,"",   10.7092E-03,   65.5672E-06,  -10.7090E-03,   946.880E-06
C:/temp/dataset/8/7_4.odb,Step-1,Increment      1: Step Time =    1.000,"PART-1-1",           249,      -10.1027,      -20.6945,            0.,NA,NA,"",   6.60690E-03,  -1.91705E-03,  -6.32266E-03,   855.023E-06
C:/temp/dataset/8/7_4.odb,Step-1,Increment      1: Step Time =    1.000,"PART-1-1",           250,      -4.80323,      -25.3191,            0.,NA,NA,"",   1.86303E-03,   269.517E-06,  -1.84343E-03,   589.054E-06
C:/temp/dataset/8/7_4.odb,Step-1,Increment      1: Step Time =    1.000,"PART-1-1",           251,      -2.51311,      -25.1881,            0.,NA,NA,"",   1.18201E-03,   343.710E-06,  -1.13094E-03,   423.935E-06
C:/temp/dataset/8/7_4.odb,Step-1,Increment      1: Step Time =    1.000,"PART-1-1",           252,       4.39742,      -24.6165,            0.,NA,NA,"",   3.38907E-03,  -135.768E-06,  -3.38635E-03,   915.449E-06
C:/temp/dataset/8/7_4.odb,Step-1,Increment      1: Step Time =    1.000,"PART-1-1",           253,       1.66428,      -24.9869,            0.,NA,NA,"",   1.35083E-03,  -265.355E-06,  -1.32451E-03,   388.834E-06
C:/temp/dataset/8/7_4.odb,Step-1,Increment      1: Step Time =    1.000,"PART-1-1",           254,      -10.0923,       15.0064,            0.,NA,NA,"",   43.0673E-03,   22.8992E-03,  -36.4749E-03,   1.01994E-03
C:/temp/dataset/8/7_4.odb,Step-1,Increment      1: Step Time =    1.000,"PART-1-1",           255,       10.3928,      -12.7475,            0.,NA,NA,"",   31.4686E-03,   12.9439E-03,  -28.6833E-03,   2.02438E-03
C:/temp/dataset/8/7_4.odb,Step-1,Increment      1: Step Time =    1.000,"PART-1-1",           256,      -10.0380,       8.31527,            0.,NA,NA,"",   36.1870E-03,   18.4323E-03,  -31.1409E-03,   1.11873E-03
C:/temp/dataset/8/7_4.odb,Step-1,Increment      1: Step Time =    1.000,"PART-1-1",           257,      -2.46664,   5.11286E-03,            0.,NA,NA,"",   36.3547E-03,   19.1244E-03,  -30.9180E-03,   160.228E-06
C:/temp/dataset/8/7_4.odb,Step-1,Increment      1: Step Time =    1.000,"PART-1-1",           258,       4.76759,       25.2938,            0.,NA,NA,"",   125.058E-03,   60.0012E-03,  -109.723E-03,   3.45890E-03
C:/temp/dataset/8/7_4.odb,Step-1,Increment      1: Step Time =    1.000,"PART-1-1",           259,      -9.80145,       22.1184,            0.,NA,NA,"",   59.1303E-03,   42.0498E-03,  -41.5717E-03,   554.383E-06
C:/temp/dataset/8/7_4.odb,Step-1,Increment      1: Step Time =    1.000,"PART-1-1",           260,      -10.0026,       19.8332,            0.,NA,NA,"",   52.0603E-03,   33.6479E-03,  -39.7253E-03,   615.297E-06
C:/temp/dataset/8/7_4.odb,Step-1,Increment      1: Step Time =    1.000,"PART-1-1",           261,      -4.38985,       24.8503,            0.,NA,NA,"",   91.1383E-03,   55.0214E-03,  -72.6556E-03,   2.11713E-03
C:/temp/dataset/8/7_4.odb,Step-1,Increment      1: Step Time =    1.000,"PART-1-1",           262,      -8.41468,       26.1052,            0.,NA,NA,"",   77.6913E-03,   59.5978E-03,  -49.8402E-03,   476.263E-06
C:/temp/dataset/8/7_4.odb,Step-1,Increment      1: Step Time =    1.000,"PART-1-1",           263,      -10.8408,       3.63703,            0.,NA,NA,"",   31.5064E-03,   17.3177E-03,  -26.3202E-03,   1.09447E-03
C:/temp/dataset/8/7_4.odb,Step-1,Increment      1: Step Time =    1.000,"PART-1-1",           264,      -10.0123,      -12.6074,            0.,NA,NA,"",   13.0574E-03,   2.04158E-03,  -12.8968E-03,   976.676E-06
C:/temp/dataset/8/7_4.odb,Step-1,Increment      1: Step Time =    1.000,"PART-1-1",           265,      -10.0363,      -17.7670,            0.,NA,NA,"",   8.67466E-03,  -1.36667E-03,  -8.56633E-03,   863.863E-06
C:/temp/dataset/8/7_4.odb,Step-1,Increment      1: Step Time =    1.000,"PART-1-1",           266,      -11.0603,      -23.9480,            0.,NA,NA,"",   4.30232E-03,  -1.85492E-03,  -3.88191E-03,   811.927E-06
C:/temp/dataset/8/7_4.odb,Step-1,Increment      1: Step Time =    1.000,"PART-1-1",           267,       6.47854,      -25.3722,            0.,NA,NA,"",   4.37513E-03,   339.703E-06,  -4.36192E-03,   1.28696E-03
C:/temp/dataset/8/7_4.odb,Step-1,Increment      1: Step Time =    1.000,"PART-1-1",           268,       8.63537,      -25.7845,            0.,NA,NA,"",   5.26239E-03,   1.28319E-03,  -5.10355E-03,   1.61933E-03
C:/temp/dataset/8/7_4.odb,Step-1,Increment      1: Step Time =    1.000,"PART-1-1",           269,       9.70324,      -17.2922,            0.,NA,NA,"",   21.9494E-03,   9.18551E-03,  -19.9349E-03,   1.90952E-03
C:/temp/dataset/8/7_4.odb,Step-1,Increment      1: Step Time =    1.000,"PART-1-1",           270,       9.32190,      -19.2968,            0.,NA,NA,"",   17.7020E-03,   7.26708E-03,  -16.1415E-03,   1.88922E-03
C:/temp/dataset/8/7_4.odb,Step-1,Increment      1: Step Time =    1.000,"PART-1-1",           271,       10.1737,       15.3696,            0.,NA,NA,"",   101.168E-03,   62.5482E-03,  -79.5157E-03,   1.95806E-03
C:/temp/dataset/8/7_4.odb,Step-1,Increment      1: Step Time =    1.000,"PART-1-1",           272,       11.4582,       22.6444,            0.,NA,NA,"",   111.942E-03,   67.0363E-03,  -89.6498E-03,   1.42605E-03
C:/temp/dataset/8/7_4.odb,Step-1,Increment      1: Step Time =    1.000,"PART-1-1",           273,       10.7208,      -10.6686,            0.,NA,NA,"",   35.9138E-03,   14.7061E-03,  -32.7648E-03,   2.03103E-03
C:/temp/dataset/8/7_4.odb,Step-1,Increment      1: Step Time =    1.000,"PART-1-1",           274,       12.8969,       24.9220,            0.,NA,NA,"",   111.139E-03,   66.2962E-03,  -89.2008E-03,   571.077E-06
C:/temp/dataset/8/7_4.odb,Step-1,Increment      1: Step Time =    1.000,"PART-1-1",           275,       10.1448,       20.8629,            0.,NA,NA,"",   110.594E-03,   66.1649E-03,  -88.6190E-03,   1.99160E-03
C:/temp/dataset/8/7_4.odb,Step-1,Increment      1: Step Time =    1.000,"PART-1-1",           276,       9.65714,      -6.54367,            0.,NA,NA,"",   42.5355E-03,   16.9790E-03,  -38.9998E-03,   1.92620E-03
C:/temp/dataset/8/7_4.odb,Step-1,Increment      1: Step Time =    1.000,"PART-1-1",           277,       9.83992,      -3.38396,            0.,NA,NA,"",   49.0982E-03,   20.1396E-03,  -44.7776E-03,   2.01244E-03
C:/temp/dataset/8/7_4.odb,Step-1,Increment      1: Step Time =    1.000,"PART-1-1",           278,       8.07567,       3.47086,            0.,NA,NA,"",   62.3005E-03,   30.8720E-03,  -54.1135E-03,   2.20155E-03
C:/temp/dataset/8/7_4.odb,Step-1,Increment      1: Step Time =    1.000,"PART-1-1",           279,       7.59381,   482.257E-03,            0.,NA,NA,"",   53.3648E-03,   23.5810E-03,  -47.8721E-03,   1.84445E-03
C:/temp/dataset/8/7_4.odb,Step-1,Increment      1: Step Time =    1.000,"PART-1-1",           280,       4.76722,  -235.440E-03,            0.,NA,NA,"",   46.4767E-03,   20.0353E-03,  -41.9365E-03,   895.425E-06
C:/temp/dataset/8/7_4.odb,Step-1,Increment      1: Step Time =    1.000,"PART-1-1",           281,      -4.77136,   213.016E-03,            0.,NA,NA,"",   33.9850E-03,   18.7513E-03,  -28.3437E-03,   525.030E-06
C:/temp/dataset/8/7_4.odb,Step-1,Increment      1: Step Time =    1.000,"PART-1-1",           282,      -7.11180,      -22.9221,            0.,NA,NA,"",   4.36163E-03,  -484.581E-06,  -4.33463E-03,   1.00325E-03
C:/temp/dataset/8/7_4.odb,Step-1,Increment      1: Step Time =    1.000,"PART-1-1",           283,      -7.18782,       23.8644,            0.,NA,NA,"",   74.4455E-03,   50.2611E-03,  -54.9176E-03,   1.30707E-03
C:/temp/dataset/8/7_4.odb,Step-1,Increment      1: Step Time =    1.000,"PART-1-1",           284,      -8.39641,      -3.64363,            0.,NA,NA,"",   25.1941E-03,   12.5707E-03,  -21.8339E-03,   962.903E-06
C:/temp/dataset/8/7_4.odb,Step-1,Increment      1: Step Time =    1.000,"PART-1-1",           285,      -5.55453,       23.5444,            0.,NA,NA,"",   81.2951E-03,   49.9474E-03,  -64.1417E-03,   2.00924E-03
C:/temp/dataset/8/7_4.odb,Step-1,Increment      1: Step Time =    1.000,"PART-1-1",           286,      -8.96964,       2.09003,            0.,NA,NA,"",   31.8555E-03,   17.8318E-03,  -26.3969E-03,   1.12302E-03
C:/temp/dataset/8/7_4.odb,Step-1,Increment      1: Step Time =    1.000,"PART-1-1",           287,      -8.56063,       4.18956,            0.,NA,NA,"",   34.4164E-03,   18.8678E-03,  -28.7836E-03,   1.21281E-03
C:/temp/dataset/8/7_4.odb,Step-1,Increment      1: Step Time =    1.000,"PART-1-1",           288,      -7.73446,  -335.973E-03,            0.,NA,NA,"",   30.2553E-03,   16.7149E-03,  -25.2190E-03,   962.559E-06
C:/temp/dataset/8/7_4.odb,Step-1,Increment      1: Step Time =    1.000,"PART-1-1",           289,      -9.21295,      -23.2880,            0.,NA,NA,"",   4.52982E-03,  -1.30416E-03,  -4.33802E-03,   887.888E-06
C:/temp/dataset/8/7_4.odb,Step-1,Increment      1: Step Time =    1.000,"PART-1-1",           290,       7.07458,       22.9394,            0.,NA,NA,"",   115.997E-03,   61.5330E-03,  -98.3311E-03,   3.87761E-03
C:/temp/dataset/8/7_4.odb,Step-1,Increment      1: Step Time =    1.000,"PART-1-1",           291,       5.55979,      -23.2424,            0.,NA,NA,"",   5.96055E-03,   845.274E-06,  -5.90031E-03,   1.34723E-03
C:/temp/dataset/8/7_4.odb,Step-1,Increment      1: Step Time =    1.000,"PART-1-1",           292,       8.69880,      -1.44983,            0.,NA,NA,"",   51.2233E-03,   21.4942E-03,  -46.4955E-03,   1.93498E-03
C:/temp/dataset/8/7_4.odb,Step-1,Increment      1: Step Time =    1.000,"PART-1-1",           293,       10.8983,      -19.3920,            0.,NA,NA,"",   19.3005E-03,   8.44194E-03,  -17.3563E-03,   1.92451E-03
C:/temp/dataset/8/7_4.odb,Step-1,Increment      1: Step Time =    1.000,"PART-1-1",           294,       11.5936,       9.64460,            0.,NA,NA,"",   88.3819E-03,   51.5489E-03,  -71.7919E-03,   1.90944E-03
C:/temp/dataset/8/7_4.odb,Step-1,Increment      1: Step Time =    1.000,"PART-1-1",           295,       7.27669,      -23.4490,            0.,NA,NA,"",   7.76331E-03,   1.87366E-03,  -7.53382E-03,   1.67133E-03
C:/temp/dataset/8/7_4.odb,Step-1,Increment      1: Step Time =    1.000,"PART-1-1",           296,       9.33849,      -21.3324,            0.,NA,NA,"",   13.8456E-03,   5.39341E-03,  -12.7519E-03,   1.87511E-03
C:/temp/dataset/8/7_4.odb,Step-1,Increment      1: Step Time =    1.000,"PART-1-1",           297,       6.40414,  -671.178E-03,            0.,NA,NA,"",   48.6481E-03,   20.4920E-03,  -44.1216E-03,   1.47861E-03
C:/temp/dataset/8/7_4.odb,Step-1,Increment      1: Step Time =    1.000,"PART-1-1",           298,       9.14051,       23.4286,            0.,NA,NA,"",   114.895E-03,   64.9157E-03,  -94.7985E-03,   2.53941E-03
C:/temp/dataset/8/7_4.odb,Step-1,Increment      1: Step Time =    1.000,"PART-1-1",           299,       8.65907,       5.77812,            0.,NA,NA,"",   70.7105E-03,   38.1385E-03,  -59.5435E-03,   2.14284E-03
C:/temp/dataset/8/7_4.odb,Step-1,Increment      1: Step Time =    1.000,"PART-1-1",           300,       8.97612,       7.18244,            0.,NA,NA,"",   75.8085E-03,   42.5270E-03,  -62.7566E-03,   2.11798E-03
C:/temp/dataset/8/7_4.odb,Step-1,Increment      1: Step Time =    1.000,"PART-1-1",           301,       6.88173,      -2.42849,            0.,NA,NA,"",   46.1785E-03,   18.4182E-03,  -42.3465E-03,   1.70659E-03
C:/temp/dataset/8/7_4.odb,Step-1,Increment      1: Step Time =    1.000,"PART-1-1",           302,      -6.42964,   749.171E-03,            0.,NA,NA,"",   32.8804E-03,   18.4959E-03,  -27.1849E-03,   851.065E-06
C:/temp/dataset/8/7_4.odb,Step-1,Increment      1: Step Time =    1.000,"PART-1-1",           303,       5.11581,      -21.8357,            0.,NA,NA,"",   6.96855E-03,   1.55388E-03,  -6.79310E-03,   1.58826E-03
C:/temp/dataset/8/7_4.odb,Step-1,Increment      1: Step Time =    1.000,"PART-1-1",           304,      -5.14463,       22.0341,            0.,NA,NA,"",   78.6515E-03,   44.4284E-03,  -64.9013E-03,   2.71832E-03
C:/temp/dataset/8/7_4.odb,Step-1,Increment      1: Step Time =    1.000,"PART-1-1",           305,      -6.99627,       4.73063,            0.,NA,NA,"",   36.4505E-03,   20.0290E-03,  -30.4546E-03,   1.34426E-03
C:/temp/dataset/8/7_4.odb,Step-1,Increment      1: Step Time =    1.000,"PART-1-1",           306,      -9.29341,       24.2181,            0.,NA,NA,"",   67.9530E-03,   51.0563E-03,  -44.8426E-03,   535.439E-06
C:/temp/dataset/8/7_4.odb,Step-1,Increment      1: Step Time =    1.000,"PART-1-1",           307,       6.91219,       25.3650,            0.,NA,NA,"",   122.268E-03,   62.9117E-03,  -104.841E-03,   3.59411E-03
C:/temp/dataset/8/7_4.odb,Step-1,Increment      1: Step Time =    1.000,"PART-1-1",           308,      -7.05007,      -25.4591,            0.,NA,NA,"",   2.41844E-03,  -225.663E-06,  -2.40789E-03,   747.647E-06
C:/temp/dataset/8/7_4.odb,Step-1,Increment      1: Step Time =    1.000,"PART-1-1",           309,   220.127E-03,       25.1193,            0.,NA,NA,"",   115.841E-03,   55.7558E-03,  -101.540E-03,   2.11721E-03
C:/temp/dataset/8/7_4.odb,Step-1,Increment      1: Step Time =    1.000,"PART-1-1",           310,      -10.0664,       10.2548,            0.,NA,NA,"",   37.7957E-03,   18.9558E-03,  -32.6985E-03,   1.10606E-03
C:/temp/dataset/8/7_4.odb,Step-1,Increment      1: Step Time =    1.000,"PART-1-1",           311,  -242.668E-03,      -25.0731,            0.,NA,NA,"",   859.814E-06,   57.5544E-06,  -857.886E-06,   301.321E-06
C:/temp/dataset/8/7_4.odb,Step-1,Increment      1: Step Time =    1.000,"PART-1-1",           312,       10.1301,       17.8656,            0.,NA,NA,"",   106.136E-03,   65.3171E-03,  -83.6572E-03,   1.84917E-03
C:/temp/dataset/8/7_4.odb,Step-1,Increment      1: Step Time =    1.000,"PART-1-1",           313,       10.5061,      -8.54167,            0.,NA,NA,"",   39.8018E-03,   16.0963E-03,  -36.4018E-03,   2.01097E-03
C:/temp/dataset/8/7_4.odb,Step-1,Increment      1: Step Time =    1.000,"PART-1-1",           314,       10.4872,  -400.528E-03,            0.,NA,NA,"",   57.1118E-03,   25.0548E-03,  -51.3227E-03,   2.12674E-03
C:/temp/dataset/8/7_4.odb,Step-1,Increment      1: Step Time =    1.000,"PART-1-1",           315,       10.8929,       24.4859,            0.,NA,NA,"",   113.692E-03,   66.0849E-03,  -92.5133E-03,   1.49887E-03
C:/temp/dataset/8/7_4.odb,Step-1,Increment      1: Step Time =    1.000,"PART-1-1",           316,      -9.77896,      -7.87942,            0.,NA,NA,"",   18.4455E-03,   6.85873E-03,  -17.1229E-03,   930.003E-06
C:/temp/dataset/8/7_4.odb,Step-1,Increment      1: Step Time =    1.000,"PART-1-1",           317,      -10.1061,       26.5279,            0.,NA,NA,"",   74.2624E-03,   61.3564E-03,  -41.8365E-03,   198.592E-06
C:/temp/dataset/8/7_4.odb,Step-1,Increment      1: Step Time =    1.000,"PART-1-1",           318,       10.2904,      -26.3642,            0.,NA,NA,"",   5.34599E-03,   1.95188E-03,  -4.97692E-03,   1.82049E-03
C:/temp/dataset/8/7_4.odb,Step-1,Increment      1: Step Time =    1.000,"PART-1-1",           319,       8.71706,      -9.20658,            0.,NA,NA,"",   36.2447E-03,   14.0432E-03,  -33.4136E-03,   1.93370E-03
C:/temp/dataset/8/7_4.odb,Step-1,Increment      1: Step Time =    1.000,"PART-1-1",           320,      -10.7949,   625.452E-03,            0.,NA,NA,"",   28.3395E-03,   15.7594E-03,  -23.5535E-03,   1.03905E-03
C:/temp/dataset/8/7_4.odb,Step-1,Increment      1: Step Time =    1.000,"PART-1-1",           321,       9.11771,      -10.6516,            0.,NA,NA,"",   33.9641E-03,   13.2959E-03,  -31.2535E-03,   1.98428E-03
C:/temp/dataset/8/7_4.odb,Step-1,Increment      1: Step Time =    1.000,"PART-1-1",           322,       10.0459,      -15.0301,            0.,NA,NA,"",   26.6485E-03,   11.0721E-03,  -24.2395E-03,   2.00022E-03
C:/temp/dataset/8/7_4.odb,Step-1,Increment      1: Step Time =    1.000,"PART-1-1",           323,       10.1838,       13.4361,            0.,NA,NA,"",   96.4568E-03,   59.1769E-03,  -76.1709E-03,   2.04963E-03
C:/temp/dataset/8/7_4.odb,Step-1,Increment      1: Step Time =    1.000,"PART-1-1",           324,       9.44411,       8.99394,            0.,NA,NA,"",   82.3905E-03,   47.9808E-03,  -66.9779E-03,   2.15065E-03
C:/temp/dataset/8/7_4.odb,Step-1,Increment      1: Step Time =    1.000,"PART-1-1",           325,      -11.4742,      -22.3598,            0.,NA,NA,"",   5.50319E-03,  -2.27082E-03,  -5.01283E-03,   794.248E-06
C:/temp/dataset/8/7_4.odb,Step-1,Increment      1: Step Time =    1.000,"PART-1-1",           326,      -10.7157,      -25.5035,            0.,NA,NA,"",   3.07137E-03,  -1.36951E-03,  -2.74914E-03,   804.291E-06
C:/temp/dataset/8/7_4.odb,Step-1,Increment      1: Step Time =    1.000,"PART-1-1",           327,       11.3755,      -22.3888,            0.,NA,NA,"",   13.9231E-03,   6.14781E-03,  -12.4923E-03,   1.98772E-03
C:/temp/dataset/8/7_4.odb,Step-1,Increment      1: Step Time =    1.000,"PART-1-1",           328,       12.6965,      -9.12334,            0.,NA,NA,"",   41.5176E-03,   17.6619E-03,  -37.5735E-03,   2.12763E-03
C:/temp/dataset/8/7_4.odb,Step-1,Increment      1: Step Time =    1.000,"PART-1-1",           329,       11.5519,      -8.21002,            0.,NA,NA,"",   41.8626E-03,   17.2989E-03,  -38.1212E-03,   2.07800E-03
C:/temp/dataset/8/7_4.odb,Step-1,Increment      1: Step Time =    1.000,"PART-1-1",           330,       10.6134,      -9.60511,            0.,NA,NA,"",   37.8596E-03,   15.3876E-03,  -34.5915E-03,   2.02099E-03
C:/temp/dataset/8/7_4.odb,Step-1,Increment      1: Step Time =    1.000,"PART-1-1",           331,       11.7580,      -10.5184,            0.,NA,NA,"",   37.5127E-03,   15.7552E-03,  -34.0437E-03,   2.06801E-03
C:/temp/dataset/8/7_4.odb,Step-1,Increment      1: Step Time =    1.000,"PART-1-1",           332,       12.2813,      -6.47713,            0.,NA,NA,"",   46.4581E-03,   19.4081E-03,  -42.2100E-03,   2.15475E-03
C:/temp/dataset/8/7_4.odb,Step-1,Increment      1: Step Time =    1.000,"PART-1-1",           333,       10.8110,      -5.80977,            0.,NA,NA,"",   45.6600E-03,   18.6253E-03,  -41.6885E-03,   2.04315E-03
C:/temp/dataset/8/7_4.odb,Step-1,Increment      1: Step Time =    1.000,"PART-1-1",           334,       10.0816,      -7.54267,            0.,NA,NA,"",   41.1901E-03,   16.5206E-03,  -37.7319E-03,   1.97115E-03
C:/temp/dataset/8/7_4.odb,Step-1,Increment      1: Step Time =    1.000,"PART-1-1",           335,       11.2990,      -15.1119,            0.,NA,NA,"",   27.9867E-03,   12.1112E-03,  -25.2304E-03,   2.00340E-03
C:/temp/dataset/8/7_4.odb,Step-1,Increment      1: Step Time =    1.000,"PART-1-1",           336,       9.87457,      -16.1611,            0.,NA,NA,"",   24.2848E-03,   10.1275E-03,  -22.0722E-03,   1.97242E-03
C:/temp/dataset/8/7_4.odb,Step-1,Increment      1: Step Time =    1.000,"PART-1-1",           337,       10.9991,      -17.5898,            0.,NA,NA,"",   22.8772E-03,   10.0174E-03,  -20.5673E-03,   1.94327E-03
C:/temp/dataset/8/7_4.odb,Step-1,Increment      1: Step Time =    1.000,"PART-1-1",           338,       12.4235,      -16.5405,            0.,NA,NA,"",   26.5484E-03,   12.0495E-03,  -23.6565E-03,   1.98999E-03
C:/temp/dataset/8/7_4.odb,Step-1,Increment      1: Step Time =    1.000,"PART-1-1",           339,       13.8616,      -12.6502,            0.,NA,NA,"",   35.8085E-03,   16.1833E-03,  -31.9429E-03,   2.07148E-03
C:/temp/dataset/8/7_4.odb,Step-1,Increment      1: Step Time =    1.000,"PART-1-1",           340,       12.6376,      -13.9658,            0.,NA,NA,"",   31.7928E-03,   14.1211E-03,  -28.4846E-03,   2.03445E-03
C:/temp/dataset/8/7_4.odb,Step-1,Increment      1: Step Time =    1.000,"PART-1-1",           341,       13.7760,      -15.1344,            0.,NA,NA,"",   30.8361E-03,   14.3049E-03,  -27.3173E-03,   2.00935E-03
C:/temp/dataset/8/7_4.odb,Step-1,Increment      1: Step Time =    1.000,"PART-1-1",           342,           15.,      -13.8188,            0.,NA,NA,"",   34.7706E-03,   16.3868E-03,  -30.6671E-03,   2.04549E-03
C:/temp/dataset/8/7_4.odb,Step-1,Increment      1: Step Time =    1.000,"PART-1-1",           343,       10.1233,      -29.0150,            0.,NA,NA,"",   1.19854E-03,   297.398E-06,  -1.16106E-03,   1.48097E-03
C:/temp/dataset/8/7_4.odb,Step-1,Increment      1: Step Time =    1.000,"PART-1-1",           344,         11.25,          -30.,            0.,NA,NA,"",            0.,   282.792E-42,  -2.97477E-39,   1.52872E-03
C:/temp/dataset/8/7_4.odb,Step-1,Increment      1: Step Time =    1.000,"PART-1-1",           345,       12.5276,      -28.8602,            0.,NA,NA,"",   1.95341E-03,   1.03126E-03,  -1.65901E-03,   1.87281E-03
C:/temp/dataset/8/7_4.odb,Step-1,Increment      1: Step Time =    1.000,"PART-1-1",           346,       11.4009,      -27.8752,            0.,NA,NA,"",   3.31360E-03,   1.49790E-03,  -2.95571E-03,   1.87287E-03
C:/temp/dataset/8/7_4.odb,Step-1,Increment      1: Step Time =    1.000,"PART-1-1",           347,  -7.48819E-03,      -28.7489,            0.,NA,NA,"",   371.191E-06,  -159.949E-06,  -334.961E-06,   365.493E-06
C:/temp/dataset/8/7_4.odb,Step-1,Increment      1: Step Time =    1.000,"PART-1-1",           348,          1.25,          -30.,            0.,NA,NA,"",            0.,  -181.683E-42,  -895.892E-42,   487.723E-06
C:/temp/dataset/8/7_4.odb,Step-1,Increment      1: Step Time =    1.000,"PART-1-1",           349,       2.65668,      -28.4883,            0.,NA,NA,"",   768.552E-06,  -447.868E-06,  -624.569E-06,   574.428E-06
C:/temp/dataset/8/7_4.odb,Step-1,Increment      1: Step Time =    1.000,"PART-1-1",           350,       1.39919,      -27.2372,            0.,NA,NA,"",   895.850E-06,  -423.937E-06,  -789.192E-06,   442.844E-06
C:/temp/dataset/8/7_4.odb,Step-1,Increment      1: Step Time =    1.000,"PART-1-1",           351,      -13.5917,      -27.3235,            0.,NA,NA,"",   2.38256E-03,  -1.58681E-03,  -1.77725E-03,   779.520E-06
C:/temp/dataset/8/7_4.odb,Step-1,Increment      1: Step Time =    1.000,"PART-1-1",           352,      -12.5620,      -25.8915,            0.,NA,NA,"",   3.19116E-03,  -1.84582E-03,  -2.60316E-03,   776.679E-06
C:/temp/dataset/8/7_4.odb,Step-1,Increment      1: Step Time =    1.000,"PART-1-1",           353,      -13.9703,      -24.8180,            0.,NA,NA,"",   4.40391E-03,  -2.62838E-03,  -3.53356E-03,   684.209E-06
C:/temp/dataset/8/7_4.odb,Step-1,Increment      1: Step Time =    1.000,"PART-1-1",           354,          -15.,        -26.25,            0.,NA,NA,"",   3.87960E-03,  -2.51550E-03,  -2.95357E-03,   684.486E-06
C:/temp/dataset/8/7_4.odb,Step-1,Increment      1: Step Time =    1.000,"PART-1-1",           355,      -13.7565,      -15.0496,            0.,NA,NA,"",   9.02493E-03,  -1.14019E-03,  -8.95261E-03,   632.452E-06
C:/temp/dataset/8/7_4.odb,Step-1,Increment      1: Step Time =    1.000,"PART-1-1",           356,          -15.,        -16.25,            0.,NA,NA,"",   7.97739E-03,  -2.13502E-03,  -7.68638E-03,   494.576E-06
C:/temp/dataset/8/7_4.odb,Step-1,Increment      1: Step Time =    1.000,"PART-1-1",           357,      -13.7726,      -17.5632,            0.,NA,NA,"",   7.93994E-03,  -2.41511E-03,  -7.56372E-03,   587.808E-06
C:/temp/dataset/8/7_4.odb,Step-1,Increment      1: Step Time =    1.000,"PART-1-1",           358,      -12.5291,      -16.3628,            0.,NA,NA,"",   8.87743E-03,  -1.53243E-03,  -8.74417E-03,   722.000E-06
C:/temp/dataset/8/7_4.odb,Step-1,Increment      1: Step Time =    1.000,"PART-1-1",           359,      -13.7981,       15.0016,            0.,NA,NA,"",   36.3379E-03,   22.4583E-03,  -28.5669E-03,   264.529E-06
C:/temp/dataset/8/7_4.odb,Step-1,Increment      1: Step Time =    1.000,"PART-1-1",           360,          -15.,         13.75,            0.,NA,NA,"",   34.0854E-03,   20.8601E-03,  -26.9567E-03,   336.980E-06
C:/temp/dataset/8/7_4.odb,Step-1,Increment      1: Step Time =    1.000,"PART-1-1",           361,      -13.7882,       12.5186,            0.,NA,NA,"",   34.6296E-03,   19.4731E-03,  -28.6358E-03,   269.951E-06
C:/temp/dataset/8/7_4.odb,Step-1,Increment      1: Step Time =    1.000,"PART-1-1",           362,      -12.5863,       13.7702,            0.,NA,NA,"",   37.1145E-03,   20.8335E-03,  -30.7157E-03,   514.724E-06
C:/temp/dataset/8/7_4.odb,Step-1,Increment      1: Step Time =    1.000,"PART-1-1",           363,         -1.25,           -5.,            0.,NA,NA,"",   34.7424E-03,   12.5035E-03,  -32.4145E-03,   194.624E-06
C:/temp/dataset/8/7_4.odb,Step-1,Increment      1: Step Time =    1.000,"PART-1-1",           364,  -13.9379E-03,      -3.76263,            0.,NA,NA,"",   37.2253E-03,   14.4444E-03,  -34.3087E-03,   157.660E-06
C:/temp/dataset/8/7_4.odb,Step-1,Increment      1: Step Time =    1.000,"PART-1-1",           365,      -1.32837,      -2.50582,            0.,NA,NA,"",   36.1442E-03,   16.0207E-03,  -32.3998E-03,   113.040E-06
C:/temp/dataset/8/7_4.odb,Step-1,Increment      1: Step Time =    1.000,"PART-1-1",           366,      -2.56444,      -3.74319,            0.,NA,NA,"",   33.6116E-03,   14.2268E-03,  -30.4522E-03,   127.886E-06
C:/temp/dataset/8/7_4.odb,Step-1,Increment      1: Step Time =    1.000,"PART-1-1",           367,       1.21115,      -2.54764,            0.,NA,NA,"",   39.5116E-03,   16.0727E-03,  -36.0948E-03,   127.786E-06
C:/temp/dataset/8/7_4.odb,Step-1,Increment      1: Step Time =    1.000,"PART-1-1",           368,          1.25,           -5.,            0.,NA,NA,"",   38.2680E-03,   13.1081E-03,  -35.9530E-03,   319.708E-06
C:/temp/dataset/8/7_4.odb,Step-1,Increment      1: Step Time =    1.000,"PART-1-1",           369,       2.47509,      -3.78501,            0.,NA,NA,"",   40.3988E-03,   14.8030E-03,  -37.5891E-03,   284.258E-06
C:/temp/dataset/8/7_4.odb,Step-1,Increment      1: Step Time =    1.000,"PART-1-1",           370,      -2.43569,       1.26731,            0.,NA,NA,"",   37.3320E-03,   20.6199E-03,  -31.1207E-03,   281.280E-06
C:/temp/dataset/8/7_4.odb,Step-1,Increment      1: Step Time =    1.000,"PART-1-1",           371,      -1.22667,  -11.4661E-03,            0.,NA,NA,"",   37.8437E-03,   19.2481E-03,  -32.5831E-03,   112.732E-06
C:/temp/dataset/8/7_4.odb,Step-1,Increment      1: Step Time =    1.000,"PART-1-1",           372,   33.9799E-03,       1.22985,            0.,NA,NA,"",   40.3657E-03,   21.0788E-03,  -34.4248E-03,   219.297E-06
C:/temp/dataset/8/7_4.odb,Step-1,Increment      1: Step Time =    1.000,"PART-1-1",           373,      -1.17505,       2.50863,            0.,NA,NA,"",   39.8212E-03,   22.4945E-03,  -32.8592E-03,   417.171E-06
C:/temp/dataset/8/7_4.odb,Step-1,Increment      1: Step Time =    1.000,"PART-1-1",           374,       4.76976,      -1.42993,            0.,NA,NA,"",   44.8772E-03,   18.2482E-03,  -40.9996E-03,   894.776E-06
C:/temp/dataset/8/7_4.odb,Step-1,Increment      1: Step Time =    1.000,"PART-1-1",           375,       3.63028,  -144.527E-03,            0.,NA,NA,"",   44.6687E-03,   19.6961E-03,  -40.0919E-03,   576.745E-06
C:/temp/dataset/8/7_4.odb,Step-1,Increment      1: Step Time =    1.000,"PART-1-1",           376,       2.47175,      -1.31182,            0.,NA,NA,"",   41.9012E-03,   17.7281E-03,  -37.9661E-03,   168.295E-06
C:/temp/dataset/8/7_4.odb,Step-1,Increment      1: Step Time =    1.000,"PART-1-1",           377,       3.61124,      -2.59722,            0.,NA,NA,"",   42.1886E-03,   16.2477E-03,  -38.9344E-03,   419.979E-06
C:/temp/dataset/8/7_4.odb,Step-1,Increment      1: Step Time =    1.000,"PART-1-1",           378,       11.8901,      -2.20917,            0.,NA,NA,"",   55.3864E-03,   23.6903E-03,  -50.0642E-03,   2.22239E-03
C:/temp/dataset/8/7_4.odb,Step-1,Increment      1: Step Time =    1.000,"PART-1-1",           379,       10.4501,      -2.71998,            0.,NA,NA,"",   51.5909E-03,   21.5331E-03,  -46.8823E-03,   2.07785E-03
C:/temp/dataset/8/7_4.odb,Step-1,Increment      1: Step Time =    1.000,"PART-1-1",           380,       10.9024,      -4.22992,            0.,NA,NA,"",   49.0851E-03,   20.2315E-03,  -44.7218E-03,   2.08572E-03
C:/temp/dataset/8/7_4.odb,Step-1,Increment      1: Step Time =    1.000,"PART-1-1",           381,       12.3424,      -3.71911,            0.,NA,NA,"",   52.6359E-03,   22.2294E-03,  -47.7115E-03,   2.22949E-03
C:/temp/dataset/8/7_4.odb,Step-1,Increment      1: Step Time =    1.000,"PART-1-1",           382,       13.7991,   56.7775E-03,            0.,NA,NA,"",   65.0235E-03,   29.4493E-03,  -57.9724E-03,   2.45575E-03
C:/temp/dataset/8/7_4.odb,Step-1,Increment      1: Step Time =    1.000,"PART-1-1",           383,           15.,       1.23750,            0.,NA,NA,"",   71.1444E-03,   33.1433E-03,  -62.9527E-03,   2.55550E-03
C:/temp/dataset/8/7_4.odb,Step-1,Increment      1: Step Time =    1.000,"PART-1-1",           384,       13.5044,       2.67232,            0.,NA,NA,"",   71.8999E-03,   34.6940E-03,  -62.9755E-03,   2.32448E-03
C:/temp/dataset/8/7_4.odb,Step-1,Increment      1: Step Time =    1.000,"PART-1-1",           385,       12.3035,       1.49160,            0.,NA,NA,"",   65.8511E-03,   30.7364E-03,  -58.2378E-03,   2.24421E-03
C:/temp/dataset/8/7_4.odb,Step-1,Increment      1: Step Time =    1.000,"PART-1-1",           386,       9.21011,       8.08819,            0.,NA,NA,"",   79.1200E-03,   45.2897E-03,  -64.8754E-03,   2.14189E-03
C:/temp/dataset/8/7_4.odb,Step-1,Increment      1: Step Time =    1.000,"PART-1-1",           387,       8.41229,       9.37574,            0.,NA,NA,"",   81.5267E-03,   48.0261E-03,  -65.8794E-03,   2.27684E-03
C:/temp/dataset/8/7_4.odb,Step-1,Increment      1: Step Time =    1.000,"PART-1-1",           388,       7.22358,       8.63283,            0.,NA,NA,"",   76.5869E-03,   44.8836E-03,  -62.0565E-03,   2.32993E-03
C:/temp/dataset/8/7_4.odb,Step-1,Increment      1: Step Time =    1.000,"PART-1-1",           389,       8.02141,       7.34528,            0.,NA,NA,"",   74.2614E-03,   42.1058E-03,  -61.1708E-03,   2.18938E-03
C:/temp/dataset/8/7_4.odb,Step-1,Increment      1: Step Time =    1.000,"PART-1-1",           390,       12.4231,       13.7517,            0.,NA,NA,"",   100.166E-03,   61.4343E-03,  -79.1136E-03,   1.50417E-03
C:/temp/dataset/8/7_4.odb,Step-1,Increment      1: Step Time =    1.000,"PART-1-1",           391,       13.6407,       12.4035,            0.,NA,NA,"",   99.0601E-03,   59.5195E-03,  -79.1854E-03,   1.32389E-03
C:/temp/dataset/8/7_4.odb,Step-1,Increment      1: Step Time =    1.000,"PART-1-1",           392,           15.,       13.6688,            0.,NA,NA,"",   103.760E-03,   62.6077E-03,  -82.7426E-03,   873.198E-06
C:/temp/dataset/8/7_4.odb,Step-1,Increment      1: Step Time =    1.000,"PART-1-1",           393,       13.7824,       15.0169,            0.,NA,NA,"",   104.286E-03,   64.2744E-03,  -82.1240E-03,   1.04053E-03
C:/temp/dataset/8/7_4.odb,Step-1,Increment      1: Step Time =    1.000,"PART-1-1",           394,       7.56520,       19.0322,            0.,NA,NA,"",   107.448E-03,   63.2659E-03,  -86.8470E-03,   2.56041E-03
C:/temp/dataset/8/7_4.odb,Step-1,Increment      1: Step Time =    1.000,"PART-1-1",           395,       8.88910,       17.7874,            0.,NA,NA,"",   105.369E-03,   64.1724E-03,  -83.5738E-03,   2.26937E-03
C:/temp/dataset/8/7_4.odb,Step-1,Increment      1: Step Time =    1.000,"PART-1-1",           396,       10.1374,       19.3643,            0.,NA,NA,"",   108.465E-03,   65.9760E-03,  -86.0925E-03,   1.88031E-03
C:/temp/dataset/8/7_4.odb,Step-1,Increment      1: Step Time =    1.000,"PART-1-1",           397,       8.81352,       20.6091,            0.,NA,NA,"",   110.311E-03,   64.6309E-03,  -89.3939E-03,   2.49233E-03
C:/temp/dataset/8/7_4.odb,Step-1,Increment      1: Step Time =    1.000,"PART-1-1",           398,       4.93385,       28.8453,            0.,NA,NA,"",   134.131E-03,   62.5831E-03,  -118.636E-03,   3.66865E-03
C:/temp/dataset/8/7_4.odb,Step-1,Increment      1: Step Time =    1.000,"PART-1-1",           399,          3.75,           30.,            0.,NA,NA,"",   137.452E-03,   64.5597E-03,  -121.347E-03,   4.36271E-03
C:/temp/dataset/8/7_4.odb,Step-1,Increment      1: Step Time =    1.000,"PART-1-1",           400,       2.48155,       28.8240,            0.,NA,NA,"",   134.169E-03,   64.9768E-03,  -117.386E-03,   3.68888E-03
C:/temp/dataset/8/7_4.odb,Step-1,Increment      1: Step Time =    1.000,"PART-1-1",           401,       3.66541,       27.6693,            0.,NA,NA,"",   132.088E-03,   62.2441E-03,  -116.503E-03,   3.22185E-03
C:/temp/dataset/8/7_4.odb,Step-1,Increment      1: Step Time =    1.000,"PART-1-1",           402,   132.783E-03,       23.8710,            0.,NA,NA,"",   113.213E-03,   53.0125E-03,  -100.035E-03,   1.83434E-03
C:/temp/dataset/8/7_4.odb,Step-1,Increment      1: Step Time =    1.000,"PART-1-1",           403,       1.26611,       22.6290,            0.,NA,NA,"",   115.166E-03,   51.3709E-03,  -103.073E-03,   1.33636E-03
C:/temp/dataset/8/7_4.odb,Step-1,Increment      1: Step Time =    1.000,"PART-1-1",           404,       2.48677,       23.9209,            0.,NA,NA,"",   120.377E-03,   54.9379E-03,  -107.110E-03,   1.80916E-03
C:/temp/dataset/8/7_4.odb,Step-1,Increment      1: Step Time =    1.000,"PART-1-1",           405,       1.35344,       25.1629,            0.,NA,NA,"",   120.323E-03,   56.3333E-03,  -106.321E-03,   1.87763E-03
C:/temp/dataset/8/7_4.odb,Step-1,Increment      1: Step Time =    1.000,"PART-1-1",           406,      -5.93264,       26.7394,            0.,NA,NA,"",   89.1694E-03,   62.5109E-03,  -63.5890E-03,   1.00467E-03
C:/temp/dataset/8/7_4.odb,Step-1,Increment      1: Step Time =    1.000,"PART-1-1",           407,      -5.38454,       25.2802,            0.,NA,NA,"",   87.2385E-03,   56.5062E-03,  -66.4650E-03,   1.62335E-03
C:/temp/dataset/8/7_4.odb,Step-1,Increment      1: Step Time =    1.000,"PART-1-1",           408,      -3.59728,       25.9693,            0.,NA,NA,"",   97.9232E-03,   58.9052E-03,  -78.2249E-03,   2.04044E-03
C:/temp/dataset/8/7_4.odb,Step-1,Increment      1: Step Time =    1.000,"PART-1-1",           409,      -4.14538,       27.4285,            0.,NA,NA,"",   98.9745E-03,   65.0061E-03,  -74.6335E-03,   1.40771E-03
C:/temp/dataset/8/7_4.odb,Step-1,Increment      1: Step Time =    1.000,"PART-1-1",           410,      -13.7907,       17.4908,            0.,NA,NA,"",   39.1216E-03,   27.2812E-03,  -28.0400E-03,   368.330E-06
C:/temp/dataset/8/7_4.odb,Step-1,Increment      1: Step Time =    1.000,"PART-1-1",           411,      -12.5378,       18.7233,            0.,NA,NA,"",   43.5941E-03,   30.3175E-03,  -31.3257E-03,   119.792E-06
C:/temp/dataset/8/7_4.odb,Step-1,Increment      1: Step Time =    1.000,"PART-1-1",           412,      -13.7471,       19.9825,            0.,NA,NA,"",   43.8851E-03,   34.3103E-03,  -27.3625E-03,   404.746E-06
C:/temp/dataset/8/7_4.odb,Step-1,Increment      1: Step Time =    1.000,"PART-1-1",           413,          -15.,         18.75,            0.,NA,NA,"",   39.2181E-03,   30.8794E-03,  -24.1768E-03,   758.768E-06
C:/temp/dataset/8/7_4.odb,Step-1,Increment      1: Step Time =    1.000,"PART-1-1",           414,      -7.55517,       18.6200,            0.,NA,NA,"",   56.3035E-03,   30.4335E-03,  -47.3697E-03,   1.39734E-03
C:/temp/dataset/8/7_4.odb,Step-1,Increment      1: Step Time =    1.000,"PART-1-1",           415,      -6.28340,       17.4693,            0.,NA,NA,"",   57.4073E-03,   28.8314E-03,  -49.6422E-03,   2.33777E-03
C:/temp/dataset/8/7_4.odb,Step-1,Increment      1: Step Time =    1.000,"PART-1-1",           416,           -5.,         18.75,            0.,NA,NA,"",   65.4548E-03,   32.7718E-03,  -56.6598E-03,   3.87104E-03
C:/temp/dataset/8/7_4.odb,Step-1,Increment      1: Step Time =    1.000,"PART-1-1",           417,      -6.27177,       19.9007,            0.,NA,NA,"",   64.0862E-03,   34.2239E-03,  -54.1827E-03,   2.37610E-03
C:/temp/dataset/8/7_4.odb,Step-1,Increment      1: Step Time =    1.000,"PART-1-1",           418,            5.,         18.75,            0.,NA,NA,"",   106.638E-03,   59.7022E-03,  -88.3584E-03,   4.86241E-03
C:/temp/dataset/8/7_4.odb,Step-1,Increment      1: Step Time =    1.000,"PART-1-1",           419,       6.32405,       17.6046,            0.,NA,NA,"",   103.775E-03,   61.2295E-03,  -83.7868E-03,   3.38285E-03
C:/temp/dataset/8/7_4.odb,Step-1,Increment      1: Step Time =    1.000,"PART-1-1",           420,       6.24114,       20.1776,            0.,NA,NA,"",   109.718E-03,   60.8274E-03,  -91.3128E-03,   3.86254E-03
C:/temp/dataset/8/7_4.odb,Step-1,Increment      1: Step Time =    1.000,"PART-1-1",           421,       5.95216,       22.8319,            0.,NA,NA,"",   117.028E-03,   59.2393E-03,  -100.927E-03,   4.04203E-03
C:/temp/dataset/8/7_4.odb,Step-1,Increment      1: Step Time =    1.000,"PART-1-1",           422,       6.99338,       24.1522,            0.,NA,NA,"",   119.219E-03,   62.1405E-03,  -101.743E-03,   3.65055E-03
C:/temp/dataset/8/7_4.odb,Step-1,Increment      1: Step Time =    1.000,"PART-1-1",           423,       5.83989,       25.3294,            0.,NA,NA,"",   124.050E-03,   61.4944E-03,  -107.736E-03,   3.54425E-03
C:/temp/dataset/8/7_4.odb,Step-1,Increment      1: Step Time =    1.000,"PART-1-1",           424,       4.79866,       24.0091,            0.,NA,NA,"",   121.439E-03,   58.3226E-03,  -106.517E-03,   3.50669E-03
C:/temp/dataset/8/7_4.odb,Step-1,Increment      1: Step Time =    1.000,"PART-1-1",           425,         -6.25,          -30.,            0.,NA,NA,"",            0.,   51.5398E-42,  -973.206E-42,   506.411E-06
C:/temp/dataset/8/7_4.odb,Step-1,Increment      1: Step Time =    1.000,"PART-1-1",           426,      -4.93028,      -28.8663,            0.,NA,NA,"",   423.465E-06,   101.047E-06,  -411.233E-06,   472.968E-06
C:/temp/dataset/8/7_4.odb,Step-1,Increment      1: Step Time =    1.000,"PART-1-1",           427,      -6.04679,      -27.7538,            0.,NA,NA,"",   962.193E-06,   64.0288E-06,  -960.060E-06,   547.562E-06
C:/temp/dataset/8/7_4.odb,Step-1,Increment      1: Step Time =    1.000,"PART-1-1",           428,      -7.36652,      -28.8875,            0.,NA,NA,"",   500.923E-06,  -22.2126E-06,  -500.431E-06,   578.891E-06
C:/temp/dataset/8/7_4.odb,Step-1,Increment      1: Step Time =    1.000,"PART-1-1",           429,       8.56540,       1.05942,            0.,NA,NA,"",   56.8127E-03,   25.7518E-03,  -50.6411E-03,   1.98800E-03
C:/temp/dataset/8/7_4.odb,Step-1,Increment      1: Step Time =    1.000,"PART-1-1",           430,       8.80633,       2.55373,            0.,NA,NA,"",   61.3350E-03,   29.3736E-03,  -53.8440E-03,   2.16390E-03
C:/temp/dataset/8/7_4.odb,Step-1,Increment      1: Step Time =    1.000,"PART-1-1",           431,       6.83858,       2.89251,            0.,NA,NA,"",   57.4669E-03,   27.9308E-03,  -50.2227E-03,   1.96441E-03
C:/temp/dataset/8/7_4.odb,Step-1,Increment      1: Step Time =    1.000,"PART-1-1",           432,       6.59765,       1.39821,            0.,NA,NA,"",   53.2287E-03,   24.3555E-03,  -47.3297E-03,   1.67811E-03
C:/temp/dataset/8/7_4.odb,Step-1,Increment      1: Step Time =    1.000,"PART-1-1",           433,       5.99067,      -9.88568,            0.,NA,NA,"",   31.7793E-03,   11.1663E-03,  -29.7529E-03,   1.90881E-03
C:/temp/dataset/8/7_4.odb,Step-1,Increment      1: Step Time =    1.000,"PART-1-1",           434,            5.,        -11.25,            0.,NA,NA,"",   28.2149E-03,   9.27795E-03,  -26.6458E-03,   1.90529E-03
C:/temp/dataset/8/7_4.odb,Step-1,Increment      1: Step Time =    1.000,"PART-1-1",           435,       6.38802,      -12.3580,            0.,NA,NA,"",   27.5538E-03,   9.66749E-03,  -25.8021E-03,   1.96508E-03
C:/temp/dataset/8/7_4.odb,Step-1,Increment      1: Step Time =    1.000,"PART-1-1",           436,       7.37869,      -10.9937,            0.,NA,NA,"",   31.2576E-03,   11.5259E-03,  -29.0549E-03,   1.95841E-03
C:/temp/dataset/8/7_4.odb,Step-1,Increment      1: Step Time =    1.000,"PART-1-1",           437,       13.7989,      -7.70794,            0.,NA,NA,"",   45.9370E-03,   19.8537E-03,  -41.4251E-03,   2.23260E-03
C:/temp/dataset/8/7_4.odb,Step-1,Increment      1: Step Time =    1.000,"PART-1-1",           438,       13.8976,      -10.2092,            0.,NA,NA,"",   40.7835E-03,   17.9969E-03,  -36.5979E-03,   2.14609E-03
C:/temp/dataset/8/7_4.odb,Step-1,Increment      1: Step Time =    1.000,"PART-1-1",           439,           15.,      -8.79375,            0.,NA,NA,"",   45.0818E-03,   20.1782E-03,  -40.3139E-03,   2.25002E-03
C:/temp/dataset/8/7_4.odb,Step-1,Increment      1: Step Time =    1.000,"PART-1-1",           440,       13.6474,      -17.7374,            0.,NA,NA,"",   25.6313E-03,   12.1848E-03,  -22.5498E-03,   1.96965E-03
C:/temp/dataset/8/7_4.odb,Step-1,Increment      1: Step Time =    1.000,"PART-1-1",           441,           15.,      -16.3312,            0.,NA,NA,"",   29.8932E-03,   14.4969E-03,  -26.1427E-03,   1.98504E-03
C:/temp/dataset/8/7_4.odb,Step-1,Increment      1: Step Time =    1.000,"PART-1-1",           442,       12.6422,      -19.1389,            0.,NA,NA,"",   21.7441E-03,   10.1422E-03,  -19.2338E-03,   1.97684E-03
C:/temp/dataset/8/7_4.odb,Step-1,Increment      1: Step Time =    1.000,"PART-1-1",           443,       13.9948,      -20.2453,            0.,NA,NA,"",   21.1046E-03,   10.3848E-03,  -18.3729E-03,   1.98386E-03
C:/temp/dataset/8/7_4.odb,Step-1,Increment      1: Step Time =    1.000,"PART-1-1",           444,           15.,      -18.8438,            0.,NA,NA,"",   25.0318E-03,   12.4723E-03,  -21.7033E-03,   1.97279E-03
C:/temp/dataset/8/7_4.odb,Step-1,Increment      1: Step Time =    1.000,"PART-1-1",           445,      -5.97701,      -22.8169,            0.,NA,NA,"",   3.91968E-03,  -18.6408E-06,  -3.91963E-03,   977.357E-06
C:/temp/dataset/8/7_4.odb,Step-1,Increment      1: Step Time =    1.000,"PART-1-1",           446,      -7.08093,      -24.1906,            0.,NA,NA,"",   3.31834E-03,  -335.927E-06,  -3.30129E-03,   863.939E-06
C:/temp/dataset/8/7_4.odb,Step-1,Increment      1: Step Time =    1.000,"PART-1-1",           447,      -5.92665,      -25.3891,            0.,NA,NA,"",   2.15950E-03,   67.9887E-06,  -2.15843E-03,   656.923E-06
C:/temp/dataset/8/7_4.odb,Step-1,Increment      1: Step Time =    1.000,"PART-1-1",           448,      -4.82272,      -24.0154,            0.,NA,NA,"",   2.48602E-03,   329.841E-06,  -2.46404E-03,   718.032E-06
C:/temp/dataset/8/7_4.odb,Step-1,Increment      1: Step Time =    1.000,"PART-1-1",           449,      -9.79394,      -28.8556,            0.,NA,NA,"",   629.248E-06,  -247.203E-06,  -578.657E-06,   648.703E-06
C:/temp/dataset/8/7_4.odb,Step-1,Increment      1: Step Time =    1.000,"PART-1-1",           450,      -10.8857,      -27.4291,            0.,NA,NA,"",   1.67146E-03,  -841.045E-06,  -1.44444E-03,   761.929E-06
C:/temp/dataset/8/7_4.odb,Step-1,Increment      1: Step Time =    1.000,"PART-1-1",           451,      -12.3417,      -28.5735,            0.,NA,NA,"",   1.01958E-03,  -651.516E-06,  -784.266E-06,   733.501E-06
C:/temp/dataset/8/7_4.odb,Step-1,Increment      1: Step Time =    1.000,"PART-1-1",           452,        -11.25,          -30.,            0.,NA,NA,"",            0.,  -207.312E-42,  -1.19842E-39,   643.836E-06
C:/temp/dataset/8/7_4.odb,Step-1,Increment      1: Step Time =    1.000,"PART-1-1",           453,      -13.5416,       7.35537,            0.,NA,NA,"",   31.9184E-03,   16.9764E-03,  -27.0293E-03,   740.484E-06
C:/temp/dataset/8/7_4.odb,Step-1,Increment      1: Step Time =    1.000,"PART-1-1",           454,          -15.,          6.25,            0.,NA,NA,"",   30.2795E-03,   16.2107E-03,  -25.5747E-03,   752.999E-06
C:/temp/dataset/8/7_4.odb,Step-1,Increment      1: Step Time =    1.000,"PART-1-1",           455,      -13.9209,       4.81128,            0.,NA,NA,"",   29.7743E-03,   16.2054E-03,  -24.9778E-03,   931.667E-06
C:/temp/dataset/8/7_4.odb,Step-1,Increment      1: Step Time =    1.000,"PART-1-1",           456,      -12.4625,       5.91665,            0.,NA,NA,"",   31.8283E-03,   17.0600E-03,  -26.8701E-03,   949.803E-06
C:/temp/dataset/8/7_4.odb,Step-1,Increment      1: Step Time =    1.000,"PART-1-1",           457,      -14.0708,       2.40501,            0.,NA,NA,"",   27.3376E-03,   15.1786E-03,  -22.7366E-03,   1.08648E-03
C:/temp/dataset/8/7_4.odb,Step-1,Increment      1: Step Time =    1.000,"PART-1-1",           458,          -15.,          1.25,            0.,NA,NA,"",   25.2172E-03,   14.0145E-03,  -20.9644E-03,   1.17070E-03
C:/temp/dataset/8/7_4.odb,Step-1,Increment      1: Step Time =    1.000,"PART-1-1",           459,      -13.9250,  -19.9917E-03,            0.,NA,NA,"",   24.5830E-03,   13.6375E-03,  -20.4534E-03,   1.11923E-03
C:/temp/dataset/8/7_4.odb,Step-1,Increment      1: Step Time =    1.000,"PART-1-1",           460,      -12.9958,       1.13502,            0.,NA,NA,"",   26.8427E-03,   14.9560E-03,  -22.2900E-03,   1.04253E-03
C:/temp/dataset/8/7_4.odb,Step-1,Increment      1: Step Time =    1.000,"PART-1-1",           461,      -13.6379,      -2.69968,            0.,NA,NA,"",   21.3187E-03,   11.2405E-03,  -18.1146E-03,   1.04927E-03
C:/temp/dataset/8/7_4.odb,Step-1,Increment      1: Step Time =    1.000,"PART-1-1",           462,          -15.,         -3.75,            0.,NA,NA,"",   18.4031E-03,   9.46941E-03,  -15.7799E-03,   1.03822E-03
C:/temp/dataset/8/7_4.odb,Step-1,Increment      1: Step Time =    1.000,"PART-1-1",           463,      -14.1619,      -5.01388,            0.,NA,NA,"",   17.6710E-03,   8.42903E-03,  -15.5311E-03,   956.808E-06
C:/temp/dataset/8/7_4.odb,Step-1,Increment      1: Step Time =    1.000,"PART-1-1",           464,      -12.7999,      -3.96356,            0.,NA,NA,"",   20.4734E-03,   10.2243E-03,  -17.7377E-03,   977.634E-06
C:/temp/dataset/8/7_4.odb,Step-1,Increment      1: Step Time =    1.000,"PART-1-1",           465,          -15.,         -8.75,            0.,NA,NA,"",   12.4115E-03,   3.95130E-03,  -11.7658E-03,   759.240E-06
C:/temp/dataset/8/7_4.odb,Step-1,Increment      1: Step Time =    1.000,"PART-1-1",           466,      -13.7347,      -9.99741,            0.,NA,NA,"",   12.5228E-03,   3.09471E-03,  -12.1344E-03,   769.365E-06
C:/temp/dataset/8/7_4.odb,Step-1,Increment      1: Step Time =    1.000,"PART-1-1",           467,      -12.3830,      -8.57467,            0.,NA,NA,"",   15.2314E-03,   5.08199E-03,  -14.3586E-03,   871.641E-06
C:/temp/dataset/8/7_4.odb,Step-1,Increment      1: Step Time =    1.000,"PART-1-1",           468,      -13.6483,      -7.32726,            0.,NA,NA,"",   15.3798E-03,   5.99299E-03,  -14.1641E-03,   858.655E-06
C:/temp/dataset/8/7_4.odb,Step-1,Increment      1: Step Time =    1.000,"PART-1-1",           469,      -11.2230,      -10.0773,            0.,NA,NA,"",   14.6736E-03,   3.93502E-03,  -14.1362E-03,   902.143E-06
C:/temp/dataset/8/7_4.odb,Step-1,Increment      1: Step Time =    1.000,"PART-1-1",           470,      -9.87779,      -9.01965,            0.,NA,NA,"",   17.0199E-03,   5.57919E-03,  -16.0795E-03,   956.517E-06
C:/temp/dataset/8/7_4.odb,Step-1,Increment      1: Step Time =    1.000,"PART-1-1",           471,      -11.0378,      -7.51697,            0.,NA,NA,"",   17.6966E-03,   6.78088E-03,  -16.3460E-03,   918.356E-06
C:/temp/dataset/8/7_4.odb,Step-1,Increment      1: Step Time =    1.000,"PART-1-1",           472,       1.25332,  -40.8297E-03,            0.,NA,NA,"",   41.1114E-03,   19.3932E-03,  -36.2499E-03,   133.949E-06
C:/temp/dataset/8/7_4.odb,Step-1,Increment      1: Step Time =    1.000,"PART-1-1",           473,  -7.28452E-03,      -1.27665,            0.,NA,NA,"",   38.6159E-03,   17.6622E-03,  -34.3400E-03,   115.933E-06
C:/temp/dataset/8/7_4.odb,Step-1,Increment      1: Step Time =    1.000,"PART-1-1",           474,       3.65826,       22.6797,            0.,NA,NA,"",   118.309E-03,   54.5882E-03,  -104.962E-03,   2.53867E-03
C:/temp/dataset/8/7_4.odb,Step-1,Increment      1: Step Time =    1.000,"PART-1-1",           475,       2.49339,       21.3176,            0.,NA,NA,"",   115.645E-03,   51.3002E-03,  -103.644E-03,   2.36920E-03
C:/temp/dataset/8/7_4.odb,Step-1,Increment      1: Step Time =    1.000,"PART-1-1",           476,          3.75,           20.,            0.,NA,NA,"",   114.931E-03,   54.6618E-03,  -101.100E-03,   3.37210E-03
C:/temp/dataset/8/7_4.odb,Step-1,Increment      1: Step Time =    1.000,"PART-1-1",           477,       4.91487,       21.3621,            0.,NA,NA,"",   113.966E-03,   55.8648E-03,  -99.3351E-03,   4.08803E-03
C:/temp/dataset/8/7_4.odb,Step-1,Increment      1: Step Time =    1.000,"PART-1-1",           478,       12.6680,       11.1714,            0.,NA,NA,"",   94.4570E-03,   56.1512E-03,  -75.9550E-03,   1.65833E-03
C:/temp/dataset/8/7_4.odb,Step-1,Increment      1: Step Time =    1.000,"PART-1-1",           479,       14.0273,       9.92409,            0.,NA,NA,"",   93.9166E-03,   54.0699E-03,  -76.7905E-03,   1.52152E-03
C:/temp/dataset/8/7_4.odb,Step-1,Increment      1: Step Time =    1.000,"PART-1-1",           480,           15.,       11.1563,            0.,NA,NA,"",   98.9081E-03,   57.5741E-03,  -80.4241E-03,   1.20779E-03
C:/temp/dataset/8/7_4.odb,Step-1,Increment      1: Step Time =    1.000,"PART-1-1",           481,       14.0536,       7.56100,            0.,NA,NA,"",   87.6229E-03,   47.9695E-03,  -73.3260E-03,   1.81927E-03
C:/temp/dataset/8/7_4.odb,Step-1,Increment      1: Step Time =    1.000,"PART-1-1",           482,       12.9489,       6.56322,            0.,NA,NA,"",   82.1991E-03,   44.3260E-03,  -69.2236E-03,   1.98243E-03
C:/temp/dataset/8/7_4.odb,Step-1,Increment      1: Step Time =    1.000,"PART-1-1",           483,       13.8953,       5.18972,            0.,NA,NA,"",   80.3253E-03,   41.4619E-03,  -68.7972E-03,   2.11732E-03
C:/temp/dataset/8/7_4.odb,Step-1,Increment      1: Step Time =    1.000,"PART-1-1",           484,           15.,        6.1875,            0.,NA,NA,"",   86.1040E-03,   45.1175E-03,  -73.3370E-03,   1.97375E-03
C:/temp/dataset/8/7_4.odb,Step-1,Increment      1: Step Time =    1.000,"PART-1-1",           485,       6.19023,       9.87877,            0.,NA,NA,"",   78.2512E-03,   46.9392E-03,  -62.6096E-03,   2.61004E-03
C:/temp/dataset/8/7_4.odb,Step-1,Increment      1: Step Time =    1.000,"PART-1-1",           486,            5.,          8.75,            0.,NA,NA,"",   71.3440E-03,   42.6891E-03,  -57.1630E-03,   2.66153E-03
C:/temp/dataset/8/7_4.odb,Step-1,Increment      1: Step Time =    1.000,"PART-1-1",           487,       6.03335,       7.50406,            0.,NA,NA,"",   69.8804E-03,   40.6324E-03,  -56.8531E-03,   2.36118E-03
C:/temp/dataset/8/7_4.odb,Step-1,Increment      1: Step Time =    1.000,"PART-1-1",           488,   27.3265E-03,       3.74387,            0.,NA,NA,"",   42.7967E-03,   24.8225E-03,  -34.8626E-03,   698.873E-06
C:/temp/dataset/8/7_4.odb,Step-1,Increment      1: Step Time =    1.000,"PART-1-1",           489,         -1.25,            5.,            0.,NA,NA,"",   42.2135E-03,   25.6180E-03,  -33.5514E-03,   1.00072E-03
C:/temp/dataset/8/7_4.odb,Step-1,Increment      1: Step Time =    1.000,"PART-1-1",           490,      -2.45237,       3.76475,            0.,NA,NA,"",   39.2499E-03,   23.2309E-03,  -31.6367E-03,   708.931E-06
C:/temp/dataset/8/7_4.odb,Step-1,Increment      1: Step Time =    1.000,"PART-1-1",           491,      -3.55115,       2.55808,            0.,NA,NA,"",   37.2110E-03,   21.5877E-03,  -30.3089E-03,   446.191E-06
C:/temp/dataset/8/7_4.odb,Step-1,Increment      1: Step Time =    1.000,"PART-1-1",           492,         -3.75,            5.,            0.,NA,NA,"",   38.6358E-03,   23.1124E-03,  -30.9604E-03,   1.13207E-03
C:/temp/dataset/8/7_4.odb,Step-1,Increment      1: Step Time =    1.000,"PART-1-1",           493,      -4.84878,       3.79333,            0.,NA,NA,"",   37.1771E-03,   21.8284E-03,  -30.0941E-03,   909.935E-06
C:/temp/dataset/8/7_4.odb,Step-1,Increment      1: Step Time =    1.000,"PART-1-1",           494,      -13.7266,       27.6069,            0.,NA,NA,"",   71.1661E-03,   66.2992E-03,  -25.8656E-03,   142.379E-06
C:/temp/dataset/8/7_4.odb,Step-1,Increment      1: Step Time =    1.000,"PART-1-1",           495,          -15.,         26.25,            0.,NA,NA,"",   63.4480E-03,   60.1116E-03,  -20.3036E-03,   235.246E-06
C:/temp/dataset/8/7_4.odb,Step-1,Increment      1: Step Time =    1.000,"PART-1-1",           496,      -13.4390,       25.0675,            0.,NA,NA,"",   61.0405E-03,   54.5806E-03,  -27.3295E-03,   224.821E-06
C:/temp/dataset/8/7_4.odb,Step-1,Increment      1: Step Time =    1.000,"PART-1-1",           497,      -12.1656,       26.4243,            0.,NA,NA,"",   69.0094E-03,   60.7676E-03,  -32.7047E-03,   236.808E-06
C:/temp/dataset/8/7_4.odb,Step-1,Increment      1: Step Time =    1.000,"PART-1-1",           498,      -3.53423,       23.8764,            0.,NA,NA,"",   93.5635E-03,   51.9477E-03,  -77.8176E-03,   2.45415E-03
C:/temp/dataset/8/7_4.odb,Step-1,Increment      1: Step Time =    1.000,"PART-1-1",           499,      -4.97219,       24.1974,            0.,NA,NA,"",   86.2807E-03,   52.5418E-03,  -68.4377E-03,   2.02828E-03
C:/temp/dataset/8/7_4.odb,Step-1,Increment      1: Step Time =    1.000,"PART-1-1",           500,      -5.34958,       22.7893,            0.,NA,NA,"",   80.0318E-03,   47.1976E-03,  -64.6334E-03,   2.25912E-03
C:/temp/dataset/8/7_4.odb,Step-1,Increment      1: Step Time =    1.000,"PART-1-1",           501,      -3.91162,       22.4683,            0.,NA,NA,"",   87.7617E-03,   47.1243E-03,  -74.0366E-03,   2.63559E-03
C:/temp/dataset/8/7_4.odb,Step-1,Increment      1: Step Time =    1.000,"PART-1-1",           502,      -12.4008,       21.2127,            0.,NA,NA,"",   49.8219E-03,   38.4402E-03,  -31.6949E-03,   138.974E-06
C:/temp/dataset/8/7_4.odb,Step-1,Increment      1: Step Time =    1.000,"PART-1-1",           503,      -13.6537,       22.4802,            0.,NA,NA,"",   51.1483E-03,   43.4743E-03,  -26.9468E-03,   327.381E-06
C:/temp/dataset/8/7_4.odb,Step-1,Increment      1: Step Time =    1.000,"PART-1-1",           504,          -15.,         21.25,            0.,NA,NA,"",   45.0420E-03,   39.0462E-03,  -22.4539E-03,   698.431E-06
C:/temp/dataset/8/7_4.odb,Step-1,Increment      1: Step Time =    1.000,"PART-1-1",           505,      -8.82885,       17.4394,            0.,NA,NA,"",   50.0753E-03,   27.4726E-03,  -41.8664E-03,   1.31491E-03
C:/temp/dataset/8/7_4.odb,Step-1,Increment      1: Step Time =    1.000,"PART-1-1",           506,      -8.77308,       19.8173,            0.,NA,NA,"",   55.5097E-03,   33.7900E-03,  -44.0405E-03,   903.512E-06
C:/temp/dataset/8/7_4.odb,Step-1,Increment      1: Step Time =    1.000,"PART-1-1",           507,      -10.0468,       18.6367,            0.,NA,NA,"",   49.2089E-03,   30.1200E-03,  -38.9141E-03,   671.168E-06
C:/temp/dataset/8/7_4.odb,Step-1,Increment      1: Step Time =    1.000,"PART-1-1",           508,   22.7198E-03,       21.3114,            0.,NA,NA,"",   108.132E-03,   46.5430E-03,  -97.6027E-03,   2.17358E-03
C:/temp/dataset/8/7_4.odb,Step-1,Increment      1: Step Time =    1.000,"PART-1-1",           509,          1.25,           20.,            0.,NA,NA,"",   110.096E-03,   46.0839E-03,  -99.9869E-03,   3.48272E-03
C:/temp/dataset/8/7_4.odb,Step-1,Increment      1: Step Time =    1.000,"PART-1-1",           510,       14.0304,       22.4987,            0.,NA,NA,"",   110.506E-03,   68.0719E-03,  -87.0510E-03,   452.342E-06
C:/temp/dataset/8/7_4.odb,Step-1,Increment      1: Step Time =    1.000,"PART-1-1",           511,       12.8970,       21.3651,            0.,NA,NA,"",   110.523E-03,   68.0042E-03,  -87.1256E-03,   890.595E-06
C:/temp/dataset/8/7_4.odb,Step-1,Increment      1: Step Time =    1.000,"PART-1-1",           512,       13.8666,       20.0727,            0.,NA,NA,"",   109.793E-03,   68.3162E-03,  -85.9501E-03,   670.089E-06
C:/temp/dataset/8/7_4.odb,Step-1,Increment      1: Step Time =    1.000,"PART-1-1",           513,           15.,       21.2062,            0.,NA,NA,"",   110.210E-03,   68.5546E-03,  -86.2932E-03,   244.569E-06
C:/temp/dataset/8/7_4.odb,Step-1,Increment      1: Step Time =    1.000,"PART-1-1",           514,       8.59704,       27.3306,            0.,NA,NA,"",   120.347E-03,   63.8668E-03,  -102.002E-03,   2.57029E-03
C:/temp/dataset/8/7_4.odb,Step-1,Increment      1: Step Time =    1.000,"PART-1-1",           515,       9.95970,       28.5191,            0.,NA,NA,"",   114.624E-03,   61.2180E-03,  -96.9070E-03,   592.148E-06
C:/temp/dataset/8/7_4.odb,Step-1,Increment      1: Step Time =    1.000,"PART-1-1",           516,          8.75,           30.,            0.,NA,NA,"",   116.064E-03,   56.7113E-03,  -101.265E-03,   485.790E-06
C:/temp/dataset/8/7_4.odb,Step-1,Increment      1: Step Time =    1.000,"PART-1-1",           517,       7.38734,       28.8115,            0.,NA,NA,"",   125.798E-03,   62.4096E-03,  -109.225E-03,   3.02605E-03
C:/temp/dataset/8/7_4.odb,Step-1,Increment      1: Step Time =    1.000,"PART-1-1",           518,       7.27843,       21.6473,            0.,NA,NA,"",   112.774E-03,   61.9901E-03,  -94.2086E-03,   3.54353E-03
C:/temp/dataset/8/7_4.odb,Step-1,Increment      1: Step Time =    1.000,"PART-1-1",           519,   2.36529E-03,       28.7726,            0.,NA,NA,"",   123.235E-03,   66.4741E-03,  -103.770E-03,   3.02480E-03
C:/temp/dataset/8/7_4.odb,Step-1,Increment      1: Step Time =    1.000,"PART-1-1",           520,       1.23392,       27.5966,            0.,NA,NA,"",   126.016E-03,   61.8043E-03,  -109.820E-03,   2.87871E-03
C:/temp/dataset/8/7_4.odb,Step-1,Increment      1: Step Time =    1.000,"PART-1-1",           521,          1.25,           30.,            0.,NA,NA,"",   135.347E-03,   71.6476E-03,  -114.828E-03,   4.23894E-03
C:/temp/dataset/8/7_4.odb,Step-1,Increment      1: Step Time =    1.000,"PART-1-1",           522,      -5.24302,       28.8844,            0.,NA,NA,"",   99.2684E-03,   72.6004E-03,  -67.7008E-03,   483.127E-06
C:/temp/dataset/8/7_4.odb,Step-1,Increment      1: Step Time =    1.000,"PART-1-1",           523,      -2.65236,       28.5441,            0.,NA,NA,"",   108.977E-03,   69.3319E-03,  -84.0780E-03,   1.34799E-03
C:/temp/dataset/8/7_4.odb,Step-1,Increment      1: Step Time =    1.000,"PART-1-1",           524,         -3.75,           30.,            0.,NA,NA,"",   109.582E-03,   78.3786E-03,  -76.5841E-03,   592.811E-06
C:/temp/dataset/8/7_4.odb,Step-1,Increment      1: Step Time =    1.000,"PART-1-1",           525,      -7.66876,       29.0336,            0.,NA,NA,"",   91.3219E-03,   73.5371E-03,  -54.1478E-03,   200.486E-06
C:/temp/dataset/8/7_4.odb,Step-1,Increment      1: Step Time =    1.000,"PART-1-1",           526,      -6.66179,       27.9180,            0.,NA,NA,"",   90.3943E-03,   68.0255E-03,  -59.5286E-03,   558.540E-06
C:/temp/dataset/8/7_4.odb,Step-1,Increment      1: Step Time =    1.000,"PART-1-1",           527,         -6.25,           30.,            0.,NA,NA,"",   100.171E-03,   78.7582E-03,  -61.8973E-03,   75.6646E-06
C:/temp/dataset/8/7_4.odb,Step-1,Increment      1: Step Time =    1.000,"PART-1-1",           528,      -8.85404,       25.1616,            0.,NA,NA,"",   72.7748E-03,   55.2977E-03,  -47.3111E-03,   488.369E-06
C:/temp/dataset/8/7_4.odb,Step-1,Increment      1: Step Time =    1.000,"PART-1-1",           529,      -8.24061,       24.0412,            0.,NA,NA,"",   70.8956E-03,   50.5775E-03,  -49.6801E-03,   876.069E-06
C:/temp/dataset/8/7_4.odb,Step-1,Increment      1: Step Time =    1.000,"PART-1-1",           530,      -6.78352,       24.7872,            0.,NA,NA,"",   79.3165E-03,   54.2393E-03,  -57.8722E-03,   1.19292E-03
C:/temp/dataset/8/7_4.odb,Step-1,Increment      1: Step Time =    1.000,"PART-1-1",           531,      -7.39696,       25.9076,            0.,NA,NA,"",   80.5982E-03,   58.8562E-03,  -55.0637E-03,   807.681E-06
C:/temp/dataset/8/7_4.odb,Step-1,Increment      1: Step Time =    1.000,"PART-1-1",           532,      -12.4766,       28.8569,            0.,NA,NA,"",   78.6612E-03,   72.1212E-03,  -31.4024E-03,   143.552E-06
C:/temp/dataset/8/7_4.odb,Step-1,Increment      1: Step Time =    1.000,"PART-1-1",           533,        -13.75,           30.,            0.,NA,NA,"",   81.4653E-03,   77.2899E-03,  -25.7462E-03,   39.0503E-06
C:/temp/dataset/8/7_4.odb,Step-1,Increment      1: Step Time =    1.000,"PART-1-1",           534,          -15.,         28.75,            0.,NA,NA,"",   74.3675E-03,   71.6053E-03,  -20.0798E-03,   40.0243E-06
C:/temp/dataset/8/7_4.odb,Step-1,Increment      1: Step Time =    1.000,"PART-1-1",           535,      -7.56181,       16.2193,            0.,NA,NA,"",   50.9265E-03,   25.8491E-03,  -43.8786E-03,   1.78140E-03
C:/temp/dataset/8/7_4.odb,Step-1,Increment      1: Step Time =    1.000,"PART-1-1",           536,      -6.27841,       15.0000,            0.,NA,NA,"",   51.2380E-03,   25.2008E-03,  -44.6122E-03,   2.04107E-03
C:/temp/dataset/8/7_4.odb,Step-1,Increment      1: Step Time =    1.000,"PART-1-1",           537,           -5.,         16.25,            0.,NA,NA,"",   56.9330E-03,   28.4019E-03,  -49.3426E-03,   2.65636E-03
C:/temp/dataset/8/7_4.odb,Step-1,Increment      1: Step Time =    1.000,"PART-1-1",           538,      -8.82455,       15.0032,            0.,NA,NA,"",   45.7744E-03,   23.4141E-03,  -39.3329E-03,   1.37331E-03
C:/temp/dataset/8/7_4.odb,Step-1,Increment      1: Step Time =    1.000,"PART-1-1",           539,      -10.0916,       16.2233,            0.,NA,NA,"",   44.8346E-03,   24.8131E-03,  -37.3424E-03,   958.093E-06
C:/temp/dataset/8/7_4.odb,Step-1,Increment      1: Step Time =    1.000,"PART-1-1",           540,      -13.7530,       10.0200,            0.,NA,NA,"",   33.2957E-03,   17.8077E-03,  -28.1334E-03,   465.137E-06
C:/temp/dataset/8/7_4.odb,Step-1,Increment      1: Step Time =    1.000,"PART-1-1",           541,      -12.5412,       11.2886,            0.,NA,NA,"",   35.3242E-03,   18.7085E-03,  -29.9632E-03,   670.984E-06
C:/temp/dataset/8/7_4.odb,Step-1,Increment      1: Step Time =    1.000,"PART-1-1",           542,          -15.,         11.25,            0.,NA,NA,"",   32.9652E-03,   18.4233E-03,  -27.3365E-03,   32.6221E-06
C:/temp/dataset/8/7_4.odb,Step-1,Increment      1: Step Time =    1.000,"PART-1-1",           543,      -7.55812,       13.7752,            0.,NA,NA,"",   46.3442E-03,   22.7203E-03,  -40.3927E-03,   1.63814E-03
C:/temp/dataset/8/7_4.odb,Step-1,Increment      1: Step Time =    1.000,"PART-1-1",           544,      -6.27971,       12.5252,            0.,NA,NA,"",   46.2864E-03,   22.4857E-03,  -40.4577E-03,   1.77026E-03
C:/temp/dataset/8/7_4.odb,Step-1,Increment      1: Step Time =    1.000,"PART-1-1",           545,           -5.,         13.75,            0.,NA,NA,"",   50.6784E-03,   24.8207E-03,  -44.1840E-03,   2.18882E-03
C:/temp/dataset/8/7_4.odb,Step-1,Increment      1: Step Time =    1.000,"PART-1-1",           546,      -7.73665,       8.67409,            0.,NA,NA,"",   39.1597E-03,   19.5951E-03,  -33.9045E-03,   1.27381E-03
C:/temp/dataset/8/7_4.odb,Step-1,Increment      1: Step Time =    1.000,"PART-1-1",           547,      -6.44095,       7.39158,            0.,NA,NA,"",   39.0256E-03,   20.1266E-03,  -33.4353E-03,   1.23978E-03
C:/temp/dataset/8/7_4.odb,Step-1,Increment      1: Step Time =    1.000,"PART-1-1",           548,           -5.,          8.75,            0.,NA,NA,"",   41.6220E-03,   21.3025E-03,  -35.7575E-03,   1.56350E-03
C:/temp/dataset/8/7_4.odb,Step-1,Increment      1: Step Time =    1.000,"PART-1-1",           549,      -6.29569,       10.0325,            0.,NA,NA,"",   42.3043E-03,   20.8960E-03,  -36.7833E-03,   1.51984E-03
C:/temp/dataset/8/7_4.odb,Step-1,Increment      1: Step Time =    1.000,"PART-1-1",           550,      -10.9758,       6.36562,            0.,NA,NA,"",   33.6419E-03,   17.7657E-03,  -28.5684E-03,   1.05492E-03
C:/temp/dataset/8/7_4.odb,Step-1,Increment      1: Step Time =    1.000,"PART-1-1",           551,      -11.8413,       4.12979,            0.,NA,NA,"",   30.9592E-03,   16.9433E-03,  -25.9113E-03,   1.03492E-03
C:/temp/dataset/8/7_4.odb,Step-1,Increment      1: Step Time =    1.000,"PART-1-1",           552,      -10.3546,       4.57877,            0.,NA,NA,"",   32.8599E-03,   17.8269E-03,  -27.6038E-03,   1.12770E-03
C:/temp/dataset/8/7_4.odb,Step-1,Increment      1: Step Time =    1.000,"PART-1-1",           553,      -7.08205,   206.599E-03,            0.,NA,NA,"",   31.5919E-03,   17.6189E-03,  -26.2225E-03,   908.990E-06
C:/temp/dataset/8/7_4.odb,Step-1,Increment      1: Step Time =    1.000,"PART-1-1",           554,      -6.69954,      -1.33924,            0.,NA,NA,"",   30.1579E-03,   16.2064E-03,  -25.4333E-03,   841.185E-06
C:/temp/dataset/8/7_4.odb,Step-1,Increment      1: Step Time =    1.000,"PART-1-1",           555,      -5.21800,      -1.06475,            0.,NA,NA,"",   32.2138E-03,   17.1735E-03,  -27.2544E-03,   609.996E-06
C:/temp/dataset/8/7_4.odb,Step-1,Increment      1: Step Time =    1.000,"PART-1-1",           556,      -5.60050,   481.094E-03,            0.,NA,NA,"",   33.4098E-03,   18.6755E-03,  -27.7027E-03,   690.947E-06
C:/temp/dataset/8/7_4.odb,Step-1,Increment      1: Step Time =    1.000,"PART-1-1",           557,      -4.73446,       1.39984,            0.,NA,NA,"",   35.1529E-03,   19.9843E-03,  -28.9198E-03,   588.438E-06
C:/temp/dataset/8/7_4.odb,Step-1,Increment      1: Step Time =    1.000,"PART-1-1",           558,      -3.61900,   109.065E-03,            0.,NA,NA,"",   35.1378E-03,   19.0060E-03,  -29.5540E-03,   336.221E-06
C:/temp/dataset/8/7_4.odb,Step-1,Increment      1: Step Time =    1.000,"PART-1-1",           559,      -7.98156,      -4.65830,            0.,NA,NA,"",   24.2952E-03,   11.4028E-03,  -21.4530E-03,   946.688E-06
C:/temp/dataset/8/7_4.odb,Step-1,Increment      1: Step Time =    1.000,"PART-1-1",           560,      -6.28336,      -5.33649,            0.,NA,NA,"",   25.3408E-03,   11.0802E-03,  -22.7900E-03,   963.323E-06
C:/temp/dataset/8/7_4.odb,Step-1,Increment      1: Step Time =    1.000,"PART-1-1",           561,      -5.33231,      -3.67126,            0.,NA,NA,"",   29.0909E-03,   13.9454E-03,  -25.5305E-03,   801.292E-06
C:/temp/dataset/8/7_4.odb,Step-1,Increment      1: Step Time =    1.000,"PART-1-1",           562,      -7.03052,      -2.99307,            0.,NA,NA,"",   27.6469E-03,   14.0378E-03,  -23.8178E-03,   902.614E-06
C:/temp/dataset/8/7_4.odb,Step-1,Increment      1: Step Time =    1.000,"PART-1-1",           563,      -9.50974,      -4.32763,            0.,NA,NA,"",   23.1686E-03,   11.2185E-03,  -20.2715E-03,   937.945E-06
C:/temp/dataset/8/7_4.odb,Step-1,Increment      1: Step Time =    1.000,"PART-1-1",           564,      -9.07232,      -2.62983,            0.,NA,NA,"",   25.8779E-03,   13.4874E-03,  -22.0852E-03,   985.854E-06
C:/temp/dataset/8/7_4.odb,Step-1,Increment      1: Step Time =    1.000,"PART-1-1",           565,      -11.0121,      -2.25769,            0.,NA,NA,"",   24.4722E-03,   12.9583E-03,  -20.7598E-03,   997.029E-06
C:/temp/dataset/8/7_4.odb,Step-1,Increment      1: Step Time =    1.000,"PART-1-1",           566,      -11.4495,      -3.95549,            0.,NA,NA,"",   21.7950E-03,   10.8250E-03,  -18.9166E-03,   972.367E-06
C:/temp/dataset/8/7_4.odb,Step-1,Increment      1: Step Time =    1.000,"PART-1-1",           567,      -12.8102,      -6.09114,            0.,NA,NA,"",   17.7158E-03,   7.73950E-03,  -15.9358E-03,   925.945E-06
C:/temp/dataset/8/7_4.odb,Step-1,Increment      1: Step Time =    1.000,"PART-1-1",           568,          -15.,         -6.25,            0.,NA,NA,"",   15.1561E-03,   6.67745E-03,  -13.6058E-03,   892.169E-06
C:/temp/dataset/8/7_4.odb,Step-1,Increment      1: Step Time =    1.000,"PART-1-1",           569,      -12.4910,      -11.2807,            0.,NA,NA,"",   12.4548E-03,   2.27555E-03,  -12.2452E-03,   818.449E-06
C:/temp/dataset/8/7_4.odb,Step-1,Increment      1: Step Time =    1.000,"PART-1-1",           570,      -11.2625,      -12.5870,            0.,NA,NA,"",   12.2164E-03,   1.55199E-03,  -12.1174E-03,   885.647E-06
C:/temp/dataset/8/7_4.odb,Step-1,Increment      1: Step Time =    1.000,"PART-1-1",           571,      -9.99448,      -11.3836,            0.,NA,NA,"",   14.3172E-03,   3.15308E-03,  -13.9657E-03,   970.147E-06
C:/temp/dataset/8/7_4.odb,Step-1,Increment      1: Step Time =    1.000,"PART-1-1",           572,      -13.7563,      -12.5333,            0.,NA,NA,"",   10.4779E-03,   728.756E-06,  -10.4525E-03,   695.882E-06
C:/temp/dataset/8/7_4.odb,Step-1,Increment      1: Step Time =    1.000,"PART-1-1",           573,          -15.,        -11.25,            0.,NA,NA,"",   10.3056E-03,   1.48754E-03,  -10.1976E-03,   649.448E-06
C:/temp/dataset/8/7_4.odb,Step-1,Increment      1: Step Time =    1.000,"PART-1-1",           574,      -8.71470,      -10.1608,            0.,NA,NA,"",   16.7446E-03,   4.89986E-03,  -16.0117E-03,   1.03556E-03
C:/temp/dataset/8/7_4.odb,Step-1,Increment      1: Step Time =    1.000,"PART-1-1",           575,      -7.42250,      -8.98868,            0.,NA,NA,"",   19.3915E-03,   6.67109E-03,  -18.2078E-03,   1.07364E-03
C:/temp/dataset/8/7_4.odb,Step-1,Increment      1: Step Time =    1.000,"PART-1-1",           576,      -8.58559,      -7.84754,            0.,NA,NA,"",   19.6416E-03,   7.37850E-03,  -18.2030E-03,   995.192E-06
C:/temp/dataset/8/7_4.odb,Step-1,Increment      1: Step Time =    1.000,"PART-1-1",           577,      -7.50843,      -13.8545,            0.,NA,NA,"",   13.4016E-03,   2.18151E-03,  -13.2229E-03,   1.17805E-03
C:/temp/dataset/8/7_4.odb,Step-1,Increment      1: Step Time =    1.000,"PART-1-1",           578,      -6.25915,      -15.0553,            0.,NA,NA,"",   12.8016E-03,   1.98859E-03,  -12.6462E-03,   1.30733E-03
C:/temp/dataset/8/7_4.odb,Step-1,Increment      1: Step Time =    1.000,"PART-1-1",           579,           -5.,        -13.75,            0.,NA,NA,"",   15.4721E-03,   3.67658E-03,  -15.0289E-03,   1.35547E-03
C:/temp/dataset/8/7_4.odb,Step-1,Increment      1: Step Time =    1.000,"PART-1-1",           580,      -6.24927,      -12.5492,            0.,NA,NA,"",   15.9799E-03,   3.92155E-03,  -15.4912E-03,   1.23555E-03
C:/temp/dataset/8/7_4.odb,Step-1,Increment      1: Step Time =    1.000,"PART-1-1",           581,      -11.2908,      -17.6967,            0.,NA,NA,"",   8.45723E-03,  -1.73776E-03,  -8.27678E-03,   782.635E-06
C:/temp/dataset/8/7_4.odb,Step-1,Increment      1: Step Time =    1.000,"PART-1-1",           582,      -12.6364,      -18.8537,            0.,NA,NA,"",   7.57174E-03,  -2.48867E-03,  -7.15107E-03,   689.876E-06
C:/temp/dataset/8/7_4.odb,Step-1,Increment      1: Step Time =    1.000,"PART-1-1",           583,      -11.4151,      -20.3877,            0.,NA,NA,"",   6.79966E-03,  -2.33572E-03,  -6.38591E-03,   767.815E-06
C:/temp/dataset/8/7_4.odb,Step-1,Increment      1: Step Time =    1.000,"PART-1-1",           584,      -10.0695,      -19.2307,            0.,NA,NA,"",   7.65700E-03,  -1.76462E-03,  -7.45089E-03,   838.665E-06
C:/temp/dataset/8/7_4.odb,Step-1,Increment      1: Step Time =    1.000,"PART-1-1",           585,      -7.51548,      -16.3910,            0.,NA,NA,"",   10.5541E-03,   365.043E-06,  -10.5478E-03,   1.19047E-03
C:/temp/dataset/8/7_4.odb,Step-1,Increment      1: Step Time =    1.000,"PART-1-1",           586,      -6.25633,      -17.5856,            0.,NA,NA,"",   9.49792E-03,   264.508E-06,  -9.49424E-03,   1.38230E-03
C:/temp/dataset/8/7_4.odb,Step-1,Increment      1: Step Time =    1.000,"PART-1-1",           587,           -5.,        -16.25,            0.,NA,NA,"",   12.1155E-03,   1.99268E-03,  -11.9505E-03,   1.49601E-03
C:/temp/dataset/8/7_4.odb,Step-1,Increment      1: Step Time =    1.000,"PART-1-1",           588,      -10.0186,      -13.8764,            0.,NA,NA,"",   11.8366E-03,   994.176E-06,  -11.7947E-03,   963.474E-06
C:/temp/dataset/8/7_4.odb,Step-1,Increment      1: Step Time =    1.000,"PART-1-1",           589,      -8.77159,      -15.1281,            0.,NA,NA,"",   11.3132E-03,   617.592E-06,  -11.2963E-03,   1.07522E-03
C:/temp/dataset/8/7_4.odb,Step-1,Increment      1: Step Time =    1.000,"PART-1-1",           590,      -8.75544,      -12.6029,            0.,NA,NA,"",   13.9439E-03,   2.60144E-03,  -13.6991E-03,   1.06182E-03
C:/temp/dataset/8/7_4.odb,Step-1,Increment      1: Step Time =    1.000,"PART-1-1",           591,      -7.46407,      -18.9773,            0.,NA,NA,"",   7.96046E-03,  -909.502E-06,  -7.90833E-03,   989.365E-06
C:/temp/dataset/8/7_4.odb,Step-1,Increment      1: Step Time =    1.000,"PART-1-1",           592,      -8.77449,      -17.7191,            0.,NA,NA,"",   8.94785E-03,  -873.310E-06,  -8.90513E-03,   1.01664E-03
C:/temp/dataset/8/7_4.odb,Step-1,Increment      1: Step Time =    1.000,"PART-1-1",           593,      -8.75908,      -20.4889,            0.,NA,NA,"",   6.76031E-03,  -1.43709E-03,  -6.60580E-03,   899.854E-06
C:/temp/dataset/8/7_4.odb,Step-1,Increment      1: Step Time =    1.000,"PART-1-1",           594,      -14.0314,      -22.4081,            0.,NA,NA,"",   5.80979E-03,  -3.06020E-03,  -4.93850E-03,   619.073E-06
C:/temp/dataset/8/7_4.odb,Step-1,Increment      1: Step Time =    1.000,"PART-1-1",           595,      -12.8952,      -21.1986,            0.,NA,NA,"",   6.33757E-03,  -2.80646E-03,  -5.68230E-03,   687.272E-06
C:/temp/dataset/8/7_4.odb,Step-1,Increment      1: Step Time =    1.000,"PART-1-1",           596,      -13.8638,      -20.0405,            0.,NA,NA,"",   6.92548E-03,  -3.02509E-03,  -6.22985E-03,   583.346E-06
C:/temp/dataset/8/7_4.odb,Step-1,Increment      1: Step Time =    1.000,"PART-1-1",           597,          -15.,        -21.25,            0.,NA,NA,"",   6.48529E-03,  -3.36659E-03,  -5.54302E-03,   516.871E-06
C:/temp/dataset/8/7_4.odb,Step-1,Increment      1: Step Time =    1.000,"PART-1-1",           598,      -11.2673,      -23.1539,            0.,NA,NA,"",   4.91386E-03,  -2.07925E-03,  -4.45227E-03,   803.268E-06
C:/temp/dataset/8/7_4.odb,Step-1,Increment      1: Step Time =    1.000,"PART-1-1",           599,      -10.1366,      -23.6180,            0.,NA,NA,"",   4.40605E-03,  -1.58785E-03,  -4.10998E-03,   848.907E-06
C:/temp/dataset/8/7_4.odb,Step-1,Increment      1: Step Time =    1.000,"PART-1-1",           600,      -9.65781,      -21.9912,            0.,NA,NA,"",   5.60918E-03,  -1.66885E-03,  -5.35517E-03,   873.385E-06
C:/temp/dataset/8/7_4.odb,Step-1,Increment      1: Step Time =    1.000,"PART-1-1",           601,      -10.7884,      -21.5271,            0.,NA,NA,"",   6.02844E-03,  -2.11147E-03,  -5.64657E-03,   818.745E-06
C:/temp/dataset/8/7_4.odb,Step-1,Increment      1: Step Time =    1.000,"PART-1-1",           602,          -15.,        -28.75,            0.,NA,NA,"",   1.74368E-03,  -1.29316E-03,  -1.16968E-03,   971.938E-06
C:/temp/dataset/8/7_4.odb,Step-1,Increment      1: Step Time =    1.000,"PART-1-1",           603,        -13.75,          -30.,            0.,NA,NA,"",            0.,  -160.646E-42,  -1.36037E-39,   978.875E-06
C:/temp/dataset/8/7_4.odb,Step-1,Increment      1: Step Time =    1.000,"PART-1-1",           604,      -2.48436,      -28.8316,            0.,NA,NA,"",   322.908E-06,   54.4153E-06,  -318.290E-06,   363.687E-06
C:/temp/dataset/8/7_4.odb,Step-1,Increment      1: Step Time =    1.000,"PART-1-1",           605,      -3.66464,      -27.6979,            0.,NA,NA,"",   727.865E-06,   168.445E-06,  -708.106E-06,   414.648E-06
C:/temp/dataset/8/7_4.odb,Step-1,Increment      1: Step Time =    1.000,"PART-1-1",           606,         -3.75,          -30.,            0.,NA,NA,"",            0.,   73.8737E-42,  -805.311E-42,   420.646E-06
C:/temp/dataset/8/7_4.odb,Step-1,Increment      1: Step Time =    1.000,"PART-1-1",           607,      -3.65817,      -25.2536,            0.,NA,NA,"",   1.49177E-03,   352.076E-06,  -1.44963E-03,   487.764E-06
C:/temp/dataset/8/7_4.odb,Step-1,Increment      1: Step Time =    1.000,"PART-1-1",           608,      -2.51119,      -23.8961,            0.,NA,NA,"",   1.42644E-03,   538.395E-06,  -1.32093E-03,   448.977E-06
C:/temp/dataset/8/7_4.odb,Step-1,Increment      1: Step Time =    1.000,"PART-1-1",           609,      -3.67574,      -22.6579,            0.,NA,NA,"",   2.49167E-03,   642.625E-06,  -2.40738E-03,   651.119E-06
C:/temp/dataset/8/7_4.odb,Step-1,Increment      1: Step Time =    1.000,"PART-1-1",           610,      -1.29318,      -22.5899,            0.,NA,NA,"",   1.20516E-03,   614.014E-06,  -1.03702E-03,   290.503E-06
C:/temp/dataset/8/7_4.odb,Step-1,Increment      1: Step Time =    1.000,"PART-1-1",           611,  -38.5445E-03,      -21.2879,            0.,NA,NA,"",   1.36147E-03,   915.186E-06,  -1.00798E-03,   242.493E-06
C:/temp/dataset/8/7_4.odb,Step-1,Increment      1: Step Time =    1.000,"PART-1-1",           612,         -1.25,          -20.,            0.,NA,NA,"",   1.37613E-03,   501.204E-06,  -1.28161E-03,   475.586E-06
C:/temp/dataset/8/7_4.odb,Step-1,Increment      1: Step Time =    1.000,"PART-1-1",           613,      -2.50464,      -21.3020,            0.,NA,NA,"",   1.80426E-03,   580.830E-06,  -1.70821E-03,   233.099E-06
C:/temp/dataset/8/7_4.odb,Step-1,Increment      1: Step Time =    1.000,"PART-1-1",           614,       6.00193,      -26.4828,            0.,NA,NA,"",   2.94047E-03,  -194.739E-06,  -2.93402E-03,   1.11213E-03
C:/temp/dataset/8/7_4.odb,Step-1,Increment      1: Step Time =    1.000,"PART-1-1",           615,       6.71688,      -27.7553,            0.,NA,NA,"",   1.99018E-03,  -225.864E-06,  -1.97733E-03,   1.12741E-03
C:/temp/dataset/8/7_4.odb,Step-1,Increment      1: Step Time =    1.000,"PART-1-1",           616,       8.27191,      -26.8508,            0.,NA,NA,"",   3.54305E-03,   548.142E-06,  -3.50039E-03,   1.45042E-03
C:/temp/dataset/8/7_4.odb,Step-1,Increment      1: Step Time =    1.000,"PART-1-1",           617,       7.55696,      -25.5783,            0.,NA,NA,"",   4.86206E-03,   774.984E-06,  -4.79990E-03,   1.44567E-03
C:/temp/dataset/8/7_4.odb,Step-1,Increment      1: Step Time =    1.000,"PART-1-1",           618,       1.28220,      -22.6790,            0.,NA,NA,"",   1.47877E-03,   460.992E-06,  -1.40508E-03,   197.750E-06
C:/temp/dataset/8/7_4.odb,Step-1,Increment      1: Step Time =    1.000,"PART-1-1",           619,       2.57074,      -21.3912,            0.,NA,NA,"",   2.93528E-03,   1.28888E-03,  -2.63717E-03,   266.809E-06
C:/temp/dataset/8/7_4.odb,Step-1,Increment      1: Step Time =    1.000,"PART-1-1",           620,          1.25,          -20.,            0.,NA,NA,"",   2.61218E-03,   1.97872E-03,  -1.70533E-03,   586.194E-06
C:/temp/dataset/8/7_4.odb,Step-1,Increment      1: Step Time =    1.000,"PART-1-1",           621,       2.23882,      -25.9818,            0.,NA,NA,"",   1.41304E-03,  -471.882E-06,  -1.33191E-03,   471.220E-06
C:/temp/dataset/8/7_4.odb,Step-1,Increment      1: Step Time =    1.000,"PART-1-1",           622,       3.60539,      -25.7966,            0.,NA,NA,"",   2.14305E-03,  -487.706E-06,  -2.08682E-03,   722.649E-06
C:/temp/dataset/8/7_4.odb,Step-1,Increment      1: Step Time =    1.000,"PART-1-1",           623,       3.51945,      -23.6994,            0.,NA,NA,"",   3.08460E-03,   19.8300E-06,  -3.08454E-03,   702.363E-06
C:/temp/dataset/8/7_4.odb,Step-1,Increment      1: Step Time =    1.000,"PART-1-1",           624,       2.15288,      -23.8846,            0.,NA,NA,"",   1.76947E-03,  -19.1017E-06,  -1.76937E-03,   377.369E-06
C:/temp/dataset/8/7_4.odb,Step-1,Increment      1: Step Time =    1.000,"PART-1-1",           625,       7.70422,      -28.9586,            0.,NA,NA,"",   980.230E-06,  -117.424E-06,  -973.171E-06,   1.19836E-03
C:/temp/dataset/8/7_4.odb,Step-1,Increment      1: Step Time =    1.000,"PART-1-1",           626,       5.26266,      -28.7967,            0.,NA,NA,"",   900.357E-06,  -391.829E-06,  -810.625E-06,   895.525E-06
C:/temp/dataset/8/7_4.odb,Step-1,Increment      1: Step Time =    1.000,"PART-1-1",           627,          6.25,          -30.,            0.,NA,NA,"",            0.,  -255.984E-42,  -1.84770E-39,   983.672E-06
C:/temp/dataset/8/7_4.odb,Step-1,Increment      1: Step Time =    1.000,"PART-1-1",           628,       12.0997,      -20.6264,            0.,NA,NA,"",   18.2026E-03,   8.36829E-03,  -16.1650E-03,   1.96781E-03
C:/temp/dataset/8/7_4.odb,Step-1,Increment      1: Step Time =    1.000,"PART-1-1",           629,       11.2927,      -21.6255,            0.,NA,NA,"",   15.3486E-03,   6.77002E-03,  -13.7748E-03,   1.96709E-03
C:/temp/dataset/8/7_4.odb,Step-1,Increment      1: Step Time =    1.000,"PART-1-1",           630,       12.1482,      -22.5490,            0.,NA,NA,"",   14.4155E-03,   6.69132E-03,  -12.7684E-03,   1.99939E-03
C:/temp/dataset/8/7_4.odb,Step-1,Increment      1: Step Time =    1.000,"PART-1-1",           631,       12.9553,      -21.5498,            0.,NA,NA,"",   17.3145E-03,   8.30644E-03,  -15.1919E-03,   2.00309E-03
C:/temp/dataset/8/7_4.odb,Step-1,Increment      1: Step Time =    1.000,"PART-1-1",           632,         13.75,          -30.,            0.,NA,NA,"",            0.,   260.305E-42,  -3.60845E-39,   2.47850E-03
C:/temp/dataset/8/7_4.odb,Step-1,Increment      1: Step Time =    1.000,"PART-1-1",           633,           15.,      -28.7625,            0.,NA,NA,"",   4.30443E-03,   3.04871E-03,  -3.03866E-03,   2.66674E-03
C:/temp/dataset/8/7_4.odb,Step-1,Increment      1: Step Time =    1.000,"PART-1-1",           634,       13.7776,      -27.6227,            0.,NA,NA,"",   5.54090E-03,   3.36403E-03,  -4.40282E-03,   2.19172E-03
C:/temp/dataset/8/7_4.odb,Step-1,Increment      1: Step Time =    1.000,"PART-1-1",           635,           15.,      -26.2875,            0.,NA,NA,"",   10.2187E-03,   6.07227E-03,  -8.21883E-03,   2.17370E-03
C:/temp/dataset/8/7_4.odb,Step-1,Increment      1: Step Time =    1.000,"PART-1-1",           636,       13.5918,      -25.0908,            0.,NA,NA,"",   10.8922E-03,   5.80043E-03,  -9.21928E-03,   2.07584E-03
C:/temp/dataset/8/7_4.odb,Step-1,Increment      1: Step Time =    1.000,"PART-1-1",           637,       12.3694,      -26.4260,            0.,NA,NA,"",   6.83209E-03,   3.46173E-03,  -5.89015E-03,   2.05769E-03
C:/temp/dataset/8/7_4.odb,Step-1,Increment      1: Step Time =    1.000,"PART-1-1",           638,       13.9605,      -22.6420,            0.,NA,NA,"",   16.2663E-03,   8.24911E-03,  -14.0194E-03,   2.03255E-03
C:/temp/dataset/8/7_4.odb,Step-1,Increment      1: Step Time =    1.000,"PART-1-1",           639,       12.5523,      -23.9204,            0.,NA,NA,"",   12.0940E-03,   5.85183E-03,  -10.5839E-03,   2.04325E-03
C:/temp/dataset/8/7_4.odb,Step-1,Increment      1: Step Time =    1.000,"PART-1-1",           640,           15.,      -23.8125,            0.,NA,NA,"",   15.1418E-03,   8.19035E-03,  -12.7354E-03,   2.05662E-03
C:/temp/dataset/8/7_4.odb,Step-1,Increment      1: Step Time =    1.000,"PART-1-1",           641,           15.,      -21.3375,            0.,NA,NA,"",   20.1229E-03,   10.3343E-03,  -17.2665E-03,   2.01373E-03
C:/temp/dataset/8/7_4.odb,Step-1,Increment      1: Step Time =    1.000,"PART-1-1",           642,       7.29123,      -18.3998,            0.,NA,NA,"",   16.9428E-03,   6.51585E-03,  -15.6398E-03,   1.82946E-03
C:/temp/dataset/8/7_4.odb,Step-1,Increment      1: Step Time =    1.000,"PART-1-1",           643,       6.16190,      -17.3915,            0.,NA,NA,"",   17.4549E-03,   6.21145E-03,  -16.3123E-03,   2.10852E-03
C:/temp/dataset/8/7_4.odb,Step-1,Increment      1: Step Time =    1.000,"PART-1-1",           644,            5.,        -18.75,            0.,NA,NA,"",   13.1955E-03,   4.31439E-03,  -12.4703E-03,   2.61389E-03
C:/temp/dataset/8/7_4.odb,Step-1,Increment      1: Step Time =    1.000,"PART-1-1",           645,       6.12933,      -19.7583,            0.,NA,NA,"",   12.9198E-03,   4.77685E-03,  -12.0043E-03,   2.03635E-03
C:/temp/dataset/8/7_4.odb,Step-1,Increment      1: Step Time =    1.000,"PART-1-1",           646,       9.51257,      -18.2945,            0.,NA,NA,"",   19.8412E-03,   8.24566E-03,  -18.0467E-03,   1.89137E-03
C:/temp/dataset/8/7_4.odb,Step-1,Increment      1: Step Time =    1.000,"PART-1-1",           647,       10.1101,      -19.3444,            0.,NA,NA,"",   18.5145E-03,   7.84218E-03,  -16.7716E-03,   1.91099E-03
C:/temp/dataset/8/7_4.odb,Step-1,Increment      1: Step Time =    1.000,"PART-1-1",           648,       11.5966,      -18.6396,            0.,NA,NA,"",   21.5334E-03,   9.66592E-03,  -19.2421E-03,   1.94578E-03
C:/temp/dataset/8/7_4.odb,Step-1,Increment      1: Step Time =    1.000,"PART-1-1",           649,       10.5568,      -11.7080,            0.,NA,NA,"",   33.6854E-03,   13.8174E-03,  -30.7211E-03,   2.02612E-03
C:/temp/dataset/8/7_4.odb,Step-1,Increment      1: Step Time =    1.000,"PART-1-1",           650,       11.5580,      -12.7427,            0.,NA,NA,"",   32.8892E-03,   13.9991E-03,  -29.7612E-03,   2.04199E-03
C:/temp/dataset/8/7_4.odb,Step-1,Increment      1: Step Time =    1.000,"PART-1-1",           651,       12.7592,      -11.5531,            0.,NA,NA,"",   36.6895E-03,   15.9404E-03,  -33.0458E-03,   2.08325E-03
C:/temp/dataset/8/7_4.odb,Step-1,Increment      1: Step Time =    1.000,"PART-1-1",           652,       5.97400,      -7.48832,            0.,NA,NA,"",   36.3951E-03,   13.2826E-03,  -33.8847E-03,   1.86323E-03
C:/temp/dataset/8/7_4.odb,Step-1,Increment      1: Step Time =    1.000,"PART-1-1",           653,            5.,         -8.75,            0.,NA,NA,"",   32.7996E-03,   11.2633E-03,  -30.8051E-03,   1.88265E-03
C:/temp/dataset/8/7_4.odb,Step-1,Increment      1: Step Time =    1.000,"PART-1-1",           654,       6.96466,      -8.62400,            0.,NA,NA,"",   35.2737E-03,   13.0603E-03,  -32.7668E-03,   1.87647E-03
C:/temp/dataset/8/7_4.odb,Step-1,Increment      1: Step Time =    1.000,"PART-1-1",           655,       13.4824,      -5.05044,            0.,NA,NA,"",   51.4205E-03,   21.9523E-03,  -46.4991E-03,   2.31456E-03
C:/temp/dataset/8/7_4.odb,Step-1,Increment      1: Step Time =    1.000,"PART-1-1",           656,           15.,      -6.28125,            0.,NA,NA,"",   50.7412E-03,   22.3546E-03,  -45.5515E-03,   2.39294E-03
C:/temp/dataset/8/7_4.odb,Step-1,Increment      1: Step Time =    1.000,"PART-1-1",           657,       12.6591,      -1.12439,            0.,NA,NA,"",   59.5427E-03,   26.1452E-03,  -53.4954E-03,   2.29415E-03
C:/temp/dataset/8/7_4.odb,Step-1,Increment      1: Step Time =    1.000,"PART-1-1",           658,       13.8600,      -2.43742,            0.,NA,NA,"",   58.4289E-03,   25.4702E-03,  -52.5852E-03,   2.45176E-03
C:/temp/dataset/8/7_4.odb,Step-1,Increment      1: Step Time =    1.000,"PART-1-1",           659,           15.,      -1.25625,            0.,NA,NA,"",   63.7846E-03,   28.5497E-03,  -57.0384E-03,   2.62368E-03
C:/temp/dataset/8/7_4.odb,Step-1,Increment      1: Step Time =    1.000,"PART-1-1",           660,       5.30074,       3.65708,            0.,NA,NA,"",   54.9813E-03,   27.9962E-03,  -47.3197E-03,   1.72460E-03
C:/temp/dataset/8/7_4.odb,Step-1,Increment      1: Step Time =    1.000,"PART-1-1",           661,       7.62947,       4.43985,            0.,NA,NA,"",   64.1460E-03,   33.1651E-03,  -54.9070E-03,   2.20467E-03
C:/temp/dataset/8/7_4.odb,Step-1,Increment      1: Step Time =    1.000,"PART-1-1",           662,       6.09164,       5.20441,            0.,NA,NA,"",   62.5651E-03,   33.9270E-03,  -52.5675E-03,   2.08908E-03
C:/temp/dataset/8/7_4.odb,Step-1,Increment      1: Step Time =    1.000,"PART-1-1",           663,       10.7729,       2.25312,            0.,NA,NA,"",   64.7440E-03,   30.8226E-03,  -56.9364E-03,   2.17039E-03
C:/temp/dataset/8/7_4.odb,Step-1,Increment      1: Step Time =    1.000,"PART-1-1",           664,       10.9515,       3.76013,            0.,NA,NA,"",   69.4977E-03,   34.7857E-03,  -60.1654E-03,   2.18350E-03
C:/temp/dataset/8/7_4.odb,Step-1,Increment      1: Step Time =    1.000,"PART-1-1",           665,       8.98494,       4.06074,            0.,NA,NA,"",   66.1495E-03,   33.5198E-03,  -57.0279E-03,   2.13843E-03
C:/temp/dataset/8/7_4.odb,Step-1,Increment      1: Step Time =    1.000,"PART-1-1",           666,           15.,       8.66250,            0.,NA,NA,"",   92.9301E-03,   51.5685E-03,  -77.3091E-03,   1.58308E-03
C:/temp/dataset/8/7_4.odb,Step-1,Increment      1: Step Time =    1.000,"PART-1-1",           667,       13.0810,       8.82259,            0.,NA,NA,"",   88.9881E-03,   50.5615E-03,  -73.2284E-03,   1.77906E-03
C:/temp/dataset/8/7_4.odb,Step-1,Increment      1: Step Time =    1.000,"PART-1-1",           668,       7.75239,       11.0444,            0.,NA,NA,"",   85.4782E-03,   51.5482E-03,  -68.1858E-03,   2.45588E-03
C:/temp/dataset/8/7_4.odb,Step-1,Increment      1: Step Time =    1.000,"PART-1-1",           669,       6.56216,       12.4157,            0.,NA,NA,"",   87.5263E-03,   53.2862E-03,  -69.4365E-03,   2.78911E-03
C:/temp/dataset/8/7_4.odb,Step-1,Increment      1: Step Time =    1.000,"PART-1-1",           670,            5.,         11.25,            0.,NA,NA,"",   79.9540E-03,   48.7229E-03,  -63.3933E-03,   2.95417E-03
C:/temp/dataset/8/7_4.odb,Step-1,Increment      1: Step Time =    1.000,"PART-1-1",           671,       10.9687,       10.2381,            0.,NA,NA,"",   88.9311E-03,   52.5635E-03,  -71.7343E-03,   1.98357E-03
C:/temp/dataset/8/7_4.odb,Step-1,Increment      1: Step Time =    1.000,"PART-1-1",           672,       9.89393,       9.91282,            0.,NA,NA,"",   86.0367E-03,   50.8072E-03,  -69.4330E-03,   2.10664E-03
C:/temp/dataset/8/7_4.odb,Step-1,Increment      1: Step Time =    1.000,"PART-1-1",           673,       10.3396,       8.57072,            0.,NA,NA,"",   82.8415E-03,   47.6301E-03,  -67.7797E-03,   2.07593E-03
C:/temp/dataset/8/7_4.odb,Step-1,Increment      1: Step Time =    1.000,"PART-1-1",           674,       11.4143,       8.89605,            0.,NA,NA,"",   85.8808E-03,   49.4259E-03,  -70.2324E-03,   1.95702E-03
C:/temp/dataset/8/7_4.odb,Step-1,Increment      1: Step Time =    1.000,"PART-1-1",           675,       12.6608,       18.9269,            0.,NA,NA,"",   108.607E-03,   67.5069E-03,  -85.0781E-03,   1.09596E-03
C:/temp/dataset/8/7_4.odb,Step-1,Increment      1: Step Time =    1.000,"PART-1-1",           676,       13.7941,       17.5480,            0.,NA,NA,"",   107.725E-03,   67.1388E-03,  -84.2437E-03,   842.217E-06
C:/temp/dataset/8/7_4.odb,Step-1,Increment      1: Step Time =    1.000,"PART-1-1",           677,           15.,       18.6938,            0.,NA,NA,"",   109.365E-03,   68.1839E-03,  -85.5076E-03,   420.990E-06
C:/temp/dataset/8/7_4.odb,Step-1,Increment      1: Step Time =    1.000,"PART-1-1",           678,       11.2471,       27.2214,            0.,NA,NA,"",   112.732E-03,   63.5048E-03,  -93.1430E-03,   696.911E-06
C:/temp/dataset/8/7_4.odb,Step-1,Increment      1: Step Time =    1.000,"PART-1-1",           679,       12.5374,       28.7023,            0.,NA,NA,"",   108.803E-03,   60.5396E-03,  -90.4055E-03,   82.3991E-06
C:/temp/dataset/8/7_4.odb,Step-1,Increment      1: Step Time =    1.000,"PART-1-1",           680,         11.25,           30.,            0.,NA,NA,"",   109.613E-03,   57.5127E-03,  -93.3124E-03,   159.150E-06
C:/temp/dataset/8/7_4.odb,Step-1,Increment      1: Step Time =    1.000,"PART-1-1",           681,       8.10754,       23.1840,            0.,NA,NA,"",   115.561E-03,   63.4846E-03,  -96.5614E-03,   3.13625E-03
C:/temp/dataset/8/7_4.odb,Step-1,Increment      1: Step Time =    1.000,"PART-1-1",           682,       9.64263,       22.1457,            0.,NA,NA,"",   112.559E-03,   65.5610E-03,  -91.4950E-03,   2.25569E-03
C:/temp/dataset/8/7_4.odb,Step-1,Increment      1: Step Time =    1.000,"PART-1-1",           683,           15.,       28.7437,            0.,NA,NA,"",   105.031E-03,   60.4517E-03,  -85.8901E-03,   93.7124E-06
C:/temp/dataset/8/7_4.odb,Step-1,Increment      1: Step Time =    1.000,"PART-1-1",           684,         13.75,           30.,            0.,NA,NA,"",   105.564E-03,   58.0389E-03,  -88.1774E-03,   93.6660E-06
C:/temp/dataset/8/7_4.odb,Step-1,Increment      1: Step Time =    1.000,"PART-1-1",           685,       13.7874,       27.4460,            0.,NA,NA,"",   108.256E-03,   62.9115E-03,  -88.0990E-03,   84.9570E-06
C:/temp/dataset/8/7_4.odb,Step-1,Increment      1: Step Time =    1.000,"PART-1-1",           686,       7.12499,       6.45847,            0.,NA,NA,"",   69.3053E-03,   38.6988E-03,  -57.4946E-03,   2.06427E-03
C:/temp/dataset/8/7_4.odb,Step-1,Increment      1: Step Time =    1.000,"PART-1-1",           687,            5.,          6.25,            0.,NA,NA,"",   62.6202E-03,   36.0676E-03,  -51.1899E-03,   2.59076E-03
C:/temp/dataset/8/7_4.odb,Step-1,Increment      1: Step Time =    1.000,"PART-1-1",           688,       9.07752,      -27.9736,            0.,NA,NA,"",   2.33731E-03,   413.981E-06,  -2.30036E-03,   1.45266E-03
C:/temp/dataset/8/7_4.odb,Step-1,Increment      1: Step Time =    1.000,"PART-1-1",           689,          8.75,          -30.,            0.,NA,NA,"",            0.,  -56.0029E-42,  -2.40357E-39,   1.26106E-03
C:/temp/dataset/8/7_4.odb,Step-1,Increment      1: Step Time =    1.000,"PART-1-1",           690,           15.,       3.71250,            0.,NA,NA,"",   78.6923E-03,   38.7726E-03,  -68.4775E-03,   2.32129E-03
C:/temp/dataset/8/7_4.odb,Step-1,Increment      1: Step Time =    1.000,"PART-1-1",           691,       12.3996,       4.14954,            0.,NA,NA,"",   73.7782E-03,   37.2675E-03,  -63.6738E-03,   2.15008E-03
C:/temp/dataset/8/7_4.odb,Step-1,Increment      1: Step Time =    1.000,"PART-1-1",           692,       9.86779,       6.75734,            0.,NA,NA,"",   76.3383E-03,   42.1157E-03,  -63.6695E-03,   2.10978E-03
C:/temp/dataset/8/7_4.odb,Step-1,Increment      1: Step Time =    1.000,"PART-1-1",           693,       8.81759,       6.48028,            0.,NA,NA,"",   73.2743E-03,   40.3452E-03,  -61.1668E-03,   2.12677E-03
C:/temp/dataset/8/7_4.odb,Step-1,Increment      1: Step Time =    1.000,"PART-1-1",           694,       9.27664,       5.21437,            0.,NA,NA,"",   70.3132E-03,   37.1025E-03,  -59.7273E-03,   2.15502E-03
C:/temp/dataset/8/7_4.odb,Step-1,Increment      1: Step Time =    1.000,"PART-1-1",           695,       10.3268,       5.49143,            0.,NA,NA,"",   73.3964E-03,   38.9266E-03,  -62.2233E-03,   2.13089E-03
C:/temp/dataset/8/7_4.odb,Step-1,Increment      1: Step Time =    1.000,"PART-1-1",           696,   710.804E-03,      -25.0300,            0.,NA,NA,"",   1.00716E-03,  -113.491E-06,  -1.00074E-03,   319.650E-06
C:/temp/dataset/8/7_4.odb,Step-1,Increment      1: Step Time =    1.000,"PART-1-1",           697,  -159.879E-03,      -23.8244,            0.,NA,NA,"",   964.037E-06,   265.646E-06,  -926.714E-06,   222.590E-06
C:/temp/dataset/8/7_4.odb,Step-1,Increment      1: Step Time =    1.000,"PART-1-1",           698,         -3.75,          -20.,            0.,NA,NA,"",   2.96139E-03,  -282.975E-06,  -2.94784E-03,   589.912E-06
C:/temp/dataset/8/7_4.odb,Step-1,Increment      1: Step Time =    1.000,"PART-1-1",           699,      -4.92110,      -21.3559,            0.,NA,NA,"",   4.40314E-03,   326.271E-06,  -4.39103E-03,   1.17431E-03
C:/temp/dataset/8/7_4.odb,Step-1,Increment      1: Step Time =    1.000,"PART-1-1",           700,         -1.25,          -30.,            0.,NA,NA,"",            0.,  -30.7935E-42,  -728.066E-42,   384.169E-06
C:/temp/dataset/8/7_4.odb,Step-1,Increment      1: Step Time =    1.000,"PART-1-1",           701,      -1.24185,      -27.5805,            0.,NA,NA,"",   545.518E-06,  -30.5088E-06,  -544.664E-06,   353.547E-06
C:/temp/dataset/8/7_4.odb,Step-1,Increment      1: Step Time =    1.000,"PART-1-1",           702,      -7.47566,      -11.3800,            0.,NA,NA,"",   16.3867E-03,   4.31754E-03,  -15.8076E-03,   1.13186E-03
C:/temp/dataset/8/7_4.odb,Step-1,Increment      1: Step Time =    1.000,"PART-1-1",           703,           -5.,        -11.25,            0.,NA,NA,"",   18.9053E-03,   5.76910E-03,  -18.0035E-03,   1.27958E-03
C:/temp/dataset/8/7_4.odb,Step-1,Increment      1: Step Time =    1.000,"PART-1-1",           704,      -6.22639,      -10.0808,            0.,NA,NA,"",   19.2054E-03,   6.19744E-03,  -18.1780E-03,   1.17897E-03
C:/temp/dataset/8/7_4.odb,Step-1,Increment      1: Step Time =    1.000,"PART-1-1",           705,          -15.,        -13.75,            0.,NA,NA,"",   8.86947E-03,  -581.095E-06,  -8.85042E-03,   559.705E-06
C:/temp/dataset/8/7_4.odb,Step-1,Increment      1: Step Time =    1.000,"PART-1-1",           706,      -12.5127,      -13.8329,            0.,NA,NA,"",   10.4306E-03,   89.4774E-06,  -10.4302E-03,   769.088E-06
C:/temp/dataset/8/7_4.odb,Step-1,Increment      1: Step Time =    1.000,"PART-1-1",           707,      -10.0964,       13.7974,            0.,NA,NA,"",   41.4925E-03,   21.4400E-03,  -35.5241E-03,   1.06533E-03
C:/temp/dataset/8/7_4.odb,Step-1,Increment      1: Step Time =    1.000,"PART-1-1",           708,      -8.82993,       12.5694,            0.,NA,NA,"",   42.2260E-03,   20.8688E-03,  -36.7087E-03,   1.30359E-03
C:/temp/dataset/8/7_4.odb,Step-1,Increment      1: Step Time =    1.000,"PART-1-1",           709,          -15.,         16.25,            0.,NA,NA,"",   35.8510E-03,   24.8667E-03,  -25.8252E-03,   621.643E-06
C:/temp/dataset/8/7_4.odb,Step-1,Increment      1: Step Time =    1.000,"PART-1-1",           710,      -12.5888,       16.2424,            0.,NA,NA,"",   39.6226E-03,   24.5288E-03,  -31.1174E-03,   334.957E-06
C:/temp/dataset/8/7_4.odb,Step-1,Increment      1: Step Time =    1.000,"PART-1-1",           711,      -12.3835,       2.26488,            0.,NA,NA,"",   28.6488E-03,   15.9318E-03,  -23.8104E-03,   1.04463E-03
C:/temp/dataset/8/7_4.odb,Step-1,Increment      1: Step Time =    1.000,"PART-1-1",           712,      -11.8224,   292.734E-03,            0.,NA,NA,"",   26.9466E-03,   14.9489E-03,  -22.4199E-03,   1.04444E-03
C:/temp/dataset/8/7_4.odb,Step-1,Increment      1: Step Time =    1.000,"PART-1-1",           713,      -11.2102,       1.42259,            0.,NA,NA,"",   28.8529E-03,   16.0768E-03,  -23.9589E-03,   1.04182E-03
C:/temp/dataset/8/7_4.odb,Step-1,Increment      1: Step Time =    1.000,"PART-1-1",           714,         -3.75,           -5.,            0.,NA,NA,"",   30.8993E-03,   12.1469E-03,  -28.4116E-03,   315.180E-06
C:/temp/dataset/8/7_4.odb,Step-1,Increment      1: Step Time =    1.000,"PART-1-1",           715,      -4.14675,      -2.41445,            0.,NA,NA,"",   32.2716E-03,   15.9001E-03,  -28.0828E-03,   389.867E-06
C:/temp/dataset/8/7_4.odb,Step-1,Increment      1: Step Time =    1.000,"PART-1-1",           716,          3.75,           -5.,            0.,NA,NA,"",   41.0679E-03,   14.1391E-03,  -38.5572E-03,   566.086E-06
C:/temp/dataset/8/7_4.odb,Step-1,Increment      1: Step Time =    1.000,"PART-1-1",           717,       4.88615,      -3.81221,            0.,NA,NA,"",   41.8941E-03,   15.3015E-03,  -38.9998E-03,   1.16687E-03
C:/temp/dataset/8/7_4.odb,Step-1,Increment      1: Step Time =    1.000,"PART-1-1",           718,          3.75,            5.,            0.,NA,NA,"",   52.5290E-03,   30.5051E-03,  -42.7637E-03,   1.16986E-03
C:/temp/dataset/8/7_4.odb,Step-1,Increment      1: Step Time =    1.000,"PART-1-1",           719,       2.57201,       3.72360,            0.,NA,NA,"",   47.4193E-03,   26.4055E-03,  -39.3870E-03,   680.477E-06
C:/temp/dataset/8/7_4.odb,Step-1,Increment      1: Step Time =    1.000,"PART-1-1",           720,       4.12275,       2.38068,            0.,NA,NA,"",   49.0705E-03,   24.2838E-03,  -42.6405E-03,   850.781E-06
C:/temp/dataset/8/7_4.odb,Step-1,Increment      1: Step Time =    1.000,"PART-1-1",           721,       1.34934,       2.46747,            0.,NA,NA,"",   43.4892E-03,   23.3500E-03,  -36.6891E-03,   381.752E-06
C:/temp/dataset/8/7_4.odb,Step-1,Increment      1: Step Time =    1.000,"PART-1-1",           722,          1.25,            5.,            0.,NA,NA,"",   46.5714E-03,   27.8564E-03,  -37.3217E-03,   1.04182E-03
C:/temp/dataset/8/7_4.odb,Step-1,Increment      1: Step Time =    1.000,"PART-1-1",           723,          6.25,           30.,            0.,NA,NA,"",   131.684E-03,   58.7392E-03,  -117.858E-03,   3.70616E-03
C:/temp/dataset/8/7_4.odb,Step-1,Increment      1: Step Time =    1.000,"PART-1-1",           724,       6.07120,       27.6569,            0.,NA,NA,"",   129.242E-03,   63.1955E-03,  -112.738E-03,   3.63941E-03
C:/temp/dataset/8/7_4.odb,Step-1,Increment      1: Step Time =    1.000,"PART-1-1",           725,         -1.25,           30.,            0.,NA,NA,"",   120.342E-03,   76.6570E-03,  -92.7682E-03,   1.59789E-03
C:/temp/dataset/8/7_4.odb,Step-1,Increment      1: Step Time =    1.000,"PART-1-1",           726,      -1.39999,       27.3167,            0.,NA,NA,"",   112.168E-03,   62.3849E-03,  -93.2185E-03,   2.61069E-03
C:/temp/dataset/8/7_4.odb,Step-1,Increment      1: Step Time =    1.000,"PART-1-1",           727,         -3.75,           20.,            0.,NA,NA,"",   81.7822E-03,   35.0005E-03,  -73.9141E-03,   1.60300E-03
C:/temp/dataset/8/7_4.odb,Step-1,Increment      1: Step Time =    1.000,"PART-1-1",           728,      -2.58930,       21.4512,            0.,NA,NA,"",   93.7973E-03,   43.8649E-03,  -82.9084E-03,   1.61263E-03
C:/temp/dataset/8/7_4.odb,Step-1,Increment      1: Step Time =    1.000,"PART-1-1",           729,      -5.07231,       21.0171,            0.,NA,NA,"",   74.9555E-03,   40.2524E-03,  -63.2303E-03,   2.91271E-03
C:/temp/dataset/8/7_4.odb,Step-1,Increment      1: Step Time =    1.000,"PART-1-1",           730,      -1.31658,       22.7626,            0.,NA,NA,"",   104.210E-03,   49.3993E-03,  -91.7576E-03,   2.10104E-03
C:/temp/dataset/8/7_4.odb,Step-1,Increment      1: Step Time =    1.000,"PART-1-1",           731,         -1.25,           20.,            0.,NA,NA,"",   98.0073E-03,   38.5537E-03,  -90.1058E-03,   2.44426E-03
C:/temp/dataset/8/7_4.odb,Step-1,Increment      1: Step Time =    1.000,"PART-1-1",           732,  -730.264E-03,       25.0913,            0.,NA,NA,"",   111.364E-03,   55.5560E-03,  -96.5165E-03,   2.25734E-03
C:/temp/dataset/8/7_4.odb,Step-1,Increment      1: Step Time =    1.000,"PART-1-1",           733,      -2.17963,       23.9829,            0.,NA,NA,"",   101.724E-03,   52.5015E-03,  -87.1286E-03,   2.46157E-03
C:/temp/dataset/8/7_4.odb,Step-1,Increment      1: Step Time =    1.000,"PART-1-1",           734,       6.36136,       15.0582,            0.,NA,NA,"",   95.6451E-03,   57.9297E-03,  -76.1061E-03,   3.12805E-03
C:/temp/dataset/8/7_4.odb,Step-1,Increment      1: Step Time =    1.000,"PART-1-1",           735,       7.68541,       16.4128,            0.,NA,NA,"",   101.393E-03,   61.6415E-03,  -80.5035E-03,   2.74487E-03
C:/temp/dataset/8/7_4.odb,Step-1,Increment      1: Step Time =    1.000,"PART-1-1",           736,            5.,         16.25,            0.,NA,NA,"",   97.0840E-03,   57.4565E-03,  -78.2563E-03,   3.85542E-03
C:/temp/dataset/8/7_4.odb,Step-1,Increment      1: Step Time =    1.000,"PART-1-1",           737,      -10.0306,      -16.4562,            0.,NA,NA,"",   9.65037E-03,  -724.135E-06,  -9.62317E-03,   921.390E-06
C:/temp/dataset/8/7_4.odb,Step-1,Increment      1: Step Time =    1.000,"PART-1-1",           738,         -8.75,          -30.,            0.,NA,NA,"",            0.,  -59.0703E-42,  -1.10779E-39,   584.276E-06
C:/temp/dataset/8/7_4.odb,Step-1,Increment      1: Step Time =    1.000,"PART-1-1",           739,      -8.41046,      -27.7431,            0.,NA,NA,"",   1.18215E-03,  -265.912E-06,  -1.15186E-03,   657.226E-06
C:/temp/dataset/8/7_4.odb,Step-1,Increment      1: Step Time =    1.000,"PART-1-1",           740,       8.76042,      -4.14506,            0.,NA,NA,"",   45.8110E-03,   18.3204E-03,  -41.9882E-03,   1.89069E-03
C:/temp/dataset/8/7_4.odb,Step-1,Increment      1: Step Time =    1.000,"PART-1-1",           741,       8.66903,      -5.72492,            0.,NA,NA,"",   42.6980E-03,   16.8460E-03,  -39.2343E-03,   1.83210E-03
C:/temp/dataset/8/7_4.odb,Step-1,Increment      1: Step Time =    1.000,"PART-1-1",           742,            5.,        -13.75,            0.,NA,NA,"",   23.4643E-03,   7.44674E-03,  -22.2513E-03,   1.98676E-03
C:/temp/dataset/8/7_4.odb,Step-1,Increment      1: Step Time =    1.000,"PART-1-1",           743,       6.25554,      -14.9359,            0.,NA,NA,"",   22.4590E-03,   7.75278E-03,  -21.0784E-03,   2.03855E-03
C:/temp/dataset/8/7_4.odb,Step-1,Increment      1: Step Time =    1.000,"PART-1-1",           744,       7.64357,      -13.5439,            0.,NA,NA,"",   26.6678E-03,   9.95202E-03,  -24.7412E-03,   2.00746E-03
C:/temp/dataset/8/7_4.odb,Step-1,Increment      1: Step Time =    1.000,"PART-1-1",           745,       7.29012,      -20.5145,            0.,NA,NA,"",   13.0540E-03,   4.66124E-03,  -12.1934E-03,   1.84858E-03
C:/temp/dataset/8/7_4.odb,Step-1,Increment      1: Step Time =    1.000,"PART-1-1",           746,       5.05790,      -20.9179,            0.,NA,NA,"",   8.34198E-03,   2.29251E-03,  -8.02079E-03,   1.74861E-03
C:/temp/dataset/8/7_4.odb,Step-1,Increment      1: Step Time =    1.000,"PART-1-1",           747,       6.21870,      -21.6741,            0.,NA,NA,"",   9.27828E-03,   2.52025E-03,  -8.92944E-03,   1.79015E-03
C:/temp/dataset/8/7_4.odb,Step-1,Increment      1: Step Time =    1.000,"PART-1-1",           748,      -6.20775,      -20.1417,            0.,NA,NA,"",   6.69778E-03,  -724.232E-06,  -6.65851E-03,   1.29060E-03
C:/temp/dataset/8/7_4.odb,Step-1,Increment      1: Step Time =    1.000,"PART-1-1",           749,      -7.26365,      -21.6027,            0.,NA,NA,"",   5.59495E-03,  -804.507E-06,  -5.53681E-03,   1.02135E-03
C:/temp/dataset/8/7_4.odb,Step-1,Increment      1: Step Time =    1.000,"PART-1-1",           750,      -7.57540,       11.3077,            0.,NA,NA,"",   42.4879E-03,   20.7209E-03,  -37.0927E-03,   1.45690E-03
C:/temp/dataset/8/7_4.odb,Step-1,Increment      1: Step Time =    1.000,"PART-1-1",           751,           -5.,         11.25,            0.,NA,NA,"",   45.5850E-03,   22.5642E-03,  -39.6087E-03,   1.87543E-03
C:/temp/dataset/8/7_4.odb,Step-1,Increment      1: Step Time =    1.000,"PART-1-1",           752,          -15.,          8.75,            0.,NA,NA,"",   31.8324E-03,   17.0556E-03,  -26.8776E-03,   392.698E-06
C:/temp/dataset/8/7_4.odb,Step-1,Increment      1: Step Time =    1.000,"PART-1-1",           753,      -12.2946,       8.62536,            0.,NA,NA,"",   33.8520E-03,   17.6649E-03,  -28.8775E-03,   846.106E-06
C:/temp/dataset/8/7_4.odb,Step-1,Increment      1: Step Time =    1.000,"PART-1-1",           754,      -10.0522,       9.28504,            0.,NA,NA,"",   36.9685E-03,   18.6414E-03,  -31.9244E-03,   1.10727E-03
C:/temp/dataset/8/7_4.odb,Step-1,Increment      1: Step Time =    1.000,"PART-1-1",           755,      -8.95993,       7.79922,            0.,NA,NA,"",   37.0032E-03,   18.8420E-03,  -31.8468E-03,   1.15992E-03
C:/temp/dataset/8/7_4.odb,Step-1,Increment      1: Step Time =    1.000,"PART-1-1",           756,      -8.82890,       10.1599,            0.,NA,NA,"",   39.3868E-03,   19.4794E-03,  -34.2327E-03,   1.23064E-03
C:/temp/dataset/8/7_4.odb,Step-1,Increment      1: Step Time =    1.000,"PART-1-1",           757,          -15.,          3.75,            0.,NA,NA,"",   28.0871E-03,   15.3530E-03,  -23.5196E-03,   1.03443E-03
C:/temp/dataset/8/7_4.odb,Step-1,Increment      1: Step Time =    1.000,"PART-1-1",           758,      -12.9917,       3.46630,            0.,NA,NA,"",   29.3062E-03,   16.1683E-03,  -24.4426E-03,   1.00208E-03
C:/temp/dataset/8/7_4.odb,Step-1,Increment      1: Step Time =    1.000,"PART-1-1",           759,          -15.,         -1.25,            0.,NA,NA,"",   21.8741E-03,   12.0121E-03,  -18.2807E-03,   1.15324E-03
C:/temp/dataset/8/7_4.odb,Step-1,Increment      1: Step Time =    1.000,"PART-1-1",           760,      -12.5629,      -1.46967,            0.,NA,NA,"",   24.0167E-03,   13.0119E-03,  -20.1865E-03,   1.02089E-03
C:/temp/dataset/8/7_4.odb,Step-1,Increment      1: Step Time =    1.000,"PART-1-1",           761,      -9.58670,      -7.04184,            0.,NA,NA,"",   19.6352E-03,   7.89245E-03,  -17.9792E-03,   930.180E-06
C:/temp/dataset/8/7_4.odb,Step-1,Increment      1: Step Time =    1.000,"PART-1-1",           762,      -10.0087,      -5.60794,            0.,NA,NA,"",   21.0288E-03,   9.44161E-03,  -18.7900E-03,   939.749E-06
C:/temp/dataset/8/7_4.odb,Step-1,Increment      1: Step Time =    1.000,"PART-1-1",           763,      -11.4598,      -6.08307,            0.,NA,NA,"",   19.0398E-03,   8.28971E-03,  -17.1405E-03,   923.581E-06
C:/temp/dataset/8/7_4.odb,Step-1,Increment      1: Step Time =    1.000,"PART-1-1",           764,           -5.,         -8.75,            0.,NA,NA,"",   22.3042E-03,   8.17149E-03,  -20.7534E-03,   1.22565E-03
C:/temp/dataset/8/7_4.odb,Step-1,Increment      1: Step Time =    1.000,"PART-1-1",           765,      -6.19611,      -7.65783,            0.,NA,NA,"",   22.4835E-03,   8.60270E-03,  -20.7726E-03,   1.12112E-03
C:/temp/dataset/8/7_4.odb,Step-1,Increment      1: Step Time =    1.000,"PART-1-1",           766,      -2.54776,      -1.24063,            0.,NA,NA,"",   35.3874E-03,   17.5909E-03,  -30.7055E-03,   147.137E-06
C:/temp/dataset/8/7_4.odb,Step-1,Increment      1: Step Time =    1.000,"PART-1-1",           767,       3.62717,       25.2502,            0.,NA,NA,"",   124.994E-03,   58.5265E-03,  -110.445E-03,   2.74308E-03
C:/temp/dataset/8/7_4.odb,Step-1,Increment      1: Step Time =    1.000,"PART-1-1",           768,       4.81765,       26.4923,            0.,NA,NA,"",   128.518E-03,   61.5953E-03,  -112.795E-03,   3.50114E-03
C:/temp/dataset/8/7_4.odb,Step-1,Increment      1: Step Time =    1.000,"PART-1-1",           769,       2.47493,       26.4272,            0.,NA,NA,"",   126.705E-03,   59.4917E-03,  -111.870E-03,   2.62000E-03
C:/temp/dataset/8/7_4.odb,Step-1,Increment      1: Step Time =    1.000,"PART-1-1",           770,       12.1711,       7.92225,            0.,NA,NA,"",   84.5334E-03,   47.4065E-03,  -69.9894E-03,   1.94244E-03
C:/temp/dataset/8/7_4.odb,Step-1,Increment      1: Step Time =    1.000,"PART-1-1",           771,       10.9972,       7.23987,            0.,NA,NA,"",   80.1173E-03,   44.5016E-03,  -66.6212E-03,   2.05273E-03
C:/temp/dataset/8/7_4.odb,Step-1,Increment      1: Step Time =    1.000,"PART-1-1",           772,       11.7750,       5.88084,            0.,NA,NA,"",   77.6194E-03,   41.3845E-03,  -65.6665E-03,   2.09128E-03
C:/temp/dataset/8/7_4.odb,Step-1,Increment      1: Step Time =    1.000,"PART-1-1",           773,       2.56868,       1.19679,            0.,NA,NA,"",   44.2306E-03,   21.5154E-03,  -38.6450E-03,   315.901E-06
C:/temp/dataset/8/7_4.odb,Step-1,Increment      1: Step Time =    1.000,"PART-1-1",           774,      -8.87516,       6.40184,            0.,NA,NA,"",   35.9658E-03,   18.8138E-03,  -30.6526E-03,   1.19684E-03
C:/temp/dataset/8/7_4.odb,Step-1,Increment      1: Step Time =    1.000,"PART-1-1",           775,      -9.21453,       4.85504,            0.,NA,NA,"",   34.3197E-03,   18.5369E-03,  -28.8830E-03,   1.18836E-03
C:/temp/dataset/8/7_4.odb,Step-1,Increment      1: Step Time =    1.000,"PART-1-1",           776,      -7.77845,       4.46010,            0.,NA,NA,"",   35.4701E-03,   19.4486E-03,  -29.6628E-03,   1.24901E-03
C:/temp/dataset/8/7_4.odb,Step-1,Increment      1: Step Time =    1.000,"PART-1-1",           777,      -7.43909,       6.00690,            0.,NA,NA,"",   37.0927E-03,   19.6549E-03,  -31.4571E-03,   1.21289E-03
C:/temp/dataset/8/7_4.odb,Step-1,Increment      1: Step Time =    1.000,"PART-1-1",           778,      -11.3073,       27.9110,            0.,NA,NA,"",   76.9959E-03,   67.7643E-03,  -36.5565E-03,   175.677E-06
C:/temp/dataset/8/7_4.odb,Step-1,Increment      1: Step Time =    1.000,"PART-1-1",           779,      -10.0807,       29.0541,            0.,NA,NA,"",   84.6070E-03,   73.3040E-03,  -42.2477E-03,   217.346E-06
C:/temp/dataset/8/7_4.odb,Step-1,Increment      1: Step Time =    1.000,"PART-1-1",           780,        -11.25,           30.,            0.,NA,NA,"",   85.8800E-03,   77.5101E-03,  -36.9807E-03,   210.467E-06
C:/temp/dataset/8/7_4.odb,Step-1,Increment      1: Step Time =    1.000,"PART-1-1",           781,          -15.,         23.75,            0.,NA,NA,"",   53.3622E-03,   49.0177E-03,  -21.0900E-03,   492.016E-06
C:/temp/dataset/8/7_4.odb,Step-1,Increment      1: Step Time =    1.000,"PART-1-1",           782,      -12.0927,       23.7977,            0.,NA,NA,"",   58.9428E-03,   48.8980E-03,  -32.9127E-03,   243.162E-06
C:/temp/dataset/8/7_4.odb,Step-1,Increment      1: Step Time =    1.000,"PART-1-1",           783,      -8.63837,       22.0170,            0.,NA,NA,"",   62.4690E-03,   41.9441E-03,  -46.2933E-03,   929.482E-06
C:/temp/dataset/8/7_4.odb,Step-1,Increment      1: Step Time =    1.000,"PART-1-1",           784,      -9.90203,       20.9758,            0.,NA,NA,"",   55.3953E-03,   37.6416E-03,  -40.6418E-03,   553.945E-06
C:/temp/dataset/8/7_4.odb,Step-1,Increment      1: Step Time =    1.000,"PART-1-1",           785,      -7.50941,       20.8584,            0.,NA,NA,"",   62.6135E-03,   37.6320E-03,  -50.0429E-03,   1.31168E-03
C:/temp/dataset/8/7_4.odb,Step-1,Increment      1: Step Time =    1.000,"PART-1-1",           786,      -11.2484,       19.8991,            0.,NA,NA,"",   49.0313E-03,   33.8169E-03,  -35.5033E-03,   302.784E-06
C:/temp/dataset/8/7_4.odb,Step-1,Increment      1: Step Time =    1.000,"PART-1-1",           787,      -11.3362,       17.4609,            0.,NA,NA,"",   43.9459E-03,   27.0899E-03,  -34.6032E-03,   489.017E-06
C:/temp/dataset/8/7_4.odb,Step-1,Increment      1: Step Time =    1.000,"PART-1-1",           788,      -6.30996,       21.9748,            0.,NA,NA,"",   71.8390E-03,   43.0574E-03,  -57.5056E-03,   2.06025E-03
C:/temp/dataset/8/7_4.odb,Step-1,Increment      1: Step Time =    1.000,"PART-1-1",           789,      -2.24269,       26.0758,            0.,NA,NA,"",   105.227E-03,   58.6835E-03,  -87.3443E-03,   2.34691E-03
C:/temp/dataset/8/7_4.odb,Step-1,Increment      1: Step Time =    1.000,"PART-1-1",           790,       12.7358,       26.1633,            0.,NA,NA,"",   110.844E-03,   64.9373E-03,  -89.8303E-03,   354.572E-06
C:/temp/dataset/8/7_4.odb,Step-1,Increment      1: Step Time =    1.000,"PART-1-1",           791,       13.9485,       24.9485,            0.,NA,NA,"",   110.024E-03,   66.3959E-03,  -87.7323E-03,   242.943E-06
C:/temp/dataset/8/7_4.odb,Step-1,Increment      1: Step Time =    1.000,"PART-1-1",           792,           15.,       26.2313,            0.,NA,NA,"",   107.888E-03,   64.7934E-03,  -86.2650E-03,   196.051E-06
C:/temp/dataset/8/7_4.odb,Step-1,Increment      1: Step Time =    1.000,"PART-1-1",           793,         -8.75,           30.,            0.,NA,NA,"",   92.1335E-03,   78.1672E-03,  -48.7695E-03,   302.405E-06
C:/temp/dataset/8/7_4.odb,Step-1,Increment      1: Step Time =    1.000,"PART-1-1",           794,      -8.99948,       28.0877,            0.,NA,NA,"",   83.4955E-03,   68.7967E-03,  -47.3130E-03,   126.286E-06
C:/temp/dataset/8/7_4.odb,Step-1,Increment      1: Step Time =    1.000,"PART-1-1",           795,      -11.0605,       7.76300,            0.,NA,NA,"",   34.5829E-03,   17.9155E-03,  -29.5806E-03,   1.03045E-03
C:/temp/dataset/8/7_4.odb,Step-1,Increment      1: Step Time =    1.000,"PART-1-1",           796,      -9.90520,       2.86353,            0.,NA,NA,"",   31.7102E-03,   17.5935E-03,  -26.3820E-03,   1.10629E-03
C:/temp/dataset/8/7_4.odb,Step-1,Increment      1: Step Time =    1.000,"PART-1-1",           797,      -11.2331,       2.92838,            0.,NA,NA,"",   30.4251E-03,   16.8466E-03,  -25.3354E-03,   1.06463E-03
C:/temp/dataset/8/7_4.odb,Step-1,Increment      1: Step Time =    1.000,"PART-1-1",           798,      -9.88229,       1.35774,            0.,NA,NA,"",   30.1015E-03,   16.8068E-03,  -24.9726E-03,   1.07352E-03
C:/temp/dataset/8/7_4.odb,Step-1,Increment      1: Step Time =    1.000,"PART-1-1",           799,           -5.,          6.25,            0.,NA,NA,"",   38.6148E-03,   20.8922E-03,  -32.4749E-03,   1.28036E-03
C:/temp/dataset/8/7_4.odb,Step-1,Increment      1: Step Time =    1.000,"PART-1-1",           800,      -5.99813,       4.86531,            0.,NA,NA,"",   37.4260E-03,   20.8475E-03,  -31.0819E-03,   1.26015E-03
C:/temp/dataset/8/7_4.odb,Step-1,Increment      1: Step Time =    1.000,"PART-1-1",           801,           -5.,         -6.25,            0.,NA,NA,"",   25.9527E-03,   10.6745E-03,  -23.6558E-03,   1.33718E-03
C:/temp/dataset/8/7_4.odb,Step-1,Increment      1: Step Time =    1.000,"PART-1-1",           802,      -7.47947,      -6.74432,            0.,NA,NA,"",   22.1814E-03,   9.04134E-03,  -20.2551E-03,   922.878E-06
C:/temp/dataset/8/7_4.odb,Step-1,Increment      1: Step Time =    1.000,"PART-1-1",           803,      -11.2689,      -15.1223,            0.,NA,NA,"",   10.1704E-03,  -388.287E-06,  -10.1630E-03,   845.649E-06
C:/temp/dataset/8/7_4.odb,Step-1,Increment      1: Step Time =    1.000,"PART-1-1",           804,          -15.,        -18.75,            0.,NA,NA,"",   7.30378E-03,  -3.06926E-03,  -6.62758E-03,   476.757E-06
C:/temp/dataset/8/7_4.odb,Step-1,Increment      1: Step Time =    1.000,"PART-1-1",           805,           -5.,        -18.75,            0.,NA,NA,"",   8.11474E-03,   413.380E-06,  -8.10420E-03,   1.87767E-03
C:/temp/dataset/8/7_4.odb,Step-1,Increment      1: Step Time =    1.000,"PART-1-1",           806,          -15.,        -23.75,            0.,NA,NA,"",   5.33156E-03,  -3.14083E-03,  -4.30821E-03,   580.980E-06
C:/temp/dataset/8/7_4.odb,Step-1,Increment      1: Step Time =    1.000,"PART-1-1",           807,      -13.0017,      -23.4761,            0.,NA,NA,"",   4.99309E-03,  -2.60540E-03,  -4.25944E-03,   721.652E-06
C:/temp/dataset/8/7_4.odb,Step-1,Increment      1: Step Time =    1.000,"PART-1-1",           808,      -10.8880,      -24.7257,            0.,NA,NA,"",   3.69170E-03,  -1.61952E-03,  -3.31750E-03,   808.321E-06
C:/temp/dataset/8/7_4.odb,Step-1,Increment      1: Step Time =    1.000,"PART-1-1",           809,      -12.0004,      -24.2920,            0.,NA,NA,"",   4.22517E-03,  -2.10212E-03,  -3.66513E-03,   789.293E-06
C:/temp/dataset/8/7_4.odb,Step-1,Increment      1: Step Time =    1.000,"PART-1-1",           810,      -11.4496,      -26.3253,            0.,NA,NA,"",   2.62250E-03,  -1.37319E-03,  -2.23425E-03,   783.126E-06
C:/temp/dataset/8/7_4.odb,Step-1,Increment      1: Step Time =    1.000,"PART-1-1",           811,      -4.83189,      -26.5259,            0.,NA,NA,"",   1.33691E-03,   202.650E-06,  -1.32147E-03,   530.236E-06
C:/temp/dataset/8/7_4.odb,Step-1,Increment      1: Step Time =    1.000,"PART-1-1",           812,      -2.49092,      -26.4256,            0.,NA,NA,"",   890.785E-06,   199.923E-06,  -868.061E-06,   373.334E-06
C:/temp/dataset/8/7_4.odb,Step-1,Increment      1: Step Time =    1.000,"PART-1-1",           813,      -1.37789,      -25.1306,            0.,NA,NA,"",   910.005E-06,   223.713E-06,  -882.078E-06,   350.777E-06
C:/temp/dataset/8/7_4.odb,Step-1,Increment      1: Step Time =    1.000,"PART-1-1",           814,          3.75,          -30.,            0.,NA,NA,"",            0.,  -292.482E-42,  -1.29651E-39,   730.728E-06
C:/temp/dataset/8/7_4.odb,Step-1,Increment      1: Step Time =    1.000,"PART-1-1",           815,       4.16934,      -27.2851,            0.,NA,NA,"",   1.63793E-03,  -584.971E-06,  -1.52990E-03,   734.691E-06
C:/temp/dataset/8/7_4.odb,Step-1,Increment      1: Step Time =    1.000,"PART-1-1",           816,       5.43798,      -24.9943,            0.,NA,NA,"",   3.97649E-03,   46.3962E-06,  -3.97622E-03,   1.08329E-03
C:/temp/dataset/8/7_4.odb,Step-1,Increment      1: Step Time =    1.000,"PART-1-1",           817,          3.75,          -20.,            0.,NA,NA,"",   5.70210E-03,   3.34787E-03,  -4.61581E-03,   707.235E-06
C:/temp/dataset/8/7_4.odb,Step-1,Increment      1: Step Time =    1.000,"PART-1-1",           818,       3.87865,      -22.3090,            0.,NA,NA,"",   4.37109E-03,   692.233E-06,  -4.31593E-03,   921.650E-06
C:/temp/dataset/8/7_4.odb,Step-1,Increment      1: Step Time =    1.000,"PART-1-1",           819,       4.97861,      -23.9295,            0.,NA,NA,"",   4.53033E-03,   294.200E-06,  -4.52077E-03,   1.11753E-03
C:/temp/dataset/8/7_4.odb,Step-1,Increment      1: Step Time =    1.000,"PART-1-1",           820,       6.87761,      -24.4106,            0.,NA,NA,"",   5.92007E-03,   988.782E-06,  -5.83691E-03,   1.47787E-03
C:/temp/dataset/8/7_4.odb,Step-1,Increment      1: Step Time =    1.000,"PART-1-1",           821,       6.41824,      -23.3457,            0.,NA,NA,"",   6.91511E-03,   1.31525E-03,  -6.78888E-03,   1.51138E-03
C:/temp/dataset/8/7_4.odb,Step-1,Increment      1: Step Time =    1.000,"PART-1-1",           822,       11.2370,      -25.7479,            0.,NA,NA,"",   7.19000E-03,   3.14701E-03,  -6.46470E-03,   1.92892E-03
C:/temp/dataset/8/7_4.odb,Step-1,Increment      1: Step Time =    1.000,"PART-1-1",           823,       10.9706,      -24.3905,            0.,NA,NA,"",   9.55499E-03,   4.03367E-03,  -8.66183E-03,   1.96671E-03
C:/temp/dataset/8/7_4.odb,Step-1,Increment      1: Step Time =    1.000,"PART-1-1",           824,       9.19650,      -24.7169,            0.,NA,NA,"",   7.42624E-03,   2.37079E-03,  -7.03764E-03,   1.75985E-03
C:/temp/dataset/8/7_4.odb,Step-1,Increment      1: Step Time =    1.000,"PART-1-1",           825,       9.46288,      -26.0743,            0.,NA,NA,"",   5.32514E-03,   1.61690E-03,  -5.07373E-03,   1.71383E-03
C:/temp/dataset/8/7_4.odb,Step-1,Increment      1: Step Time =    1.000,"PART-1-1",           826,       7.41744,      -16.0774,            0.,NA,NA,"",   21.5520E-03,   8.09098E-03,  -19.9756E-03,   2.03148E-03
C:/temp/dataset/8/7_4.odb,Step-1,Increment      1: Step Time =    1.000,"PART-1-1",           827,            5.,        -16.25,            0.,NA,NA,"",   18.6563E-03,   5.70986E-03,  -17.7611E-03,   2.11950E-03
C:/temp/dataset/8/7_4.odb,Step-1,Increment      1: Step Time =    1.000,"PART-1-1",           828,       10.2193,      -13.8888,            0.,NA,NA,"",   29.0496E-03,   12.0047E-03,  -26.4531E-03,   2.01290E-03
C:/temp/dataset/8/7_4.odb,Step-1,Increment      1: Step Time =    1.000,"PART-1-1",           829,            5.,         -6.25,            0.,NA,NA,"",   37.8330E-03,   13.6530E-03,  -35.2835E-03,   2.00995E-03
C:/temp/dataset/8/7_4.odb,Step-1,Increment      1: Step Time =    1.000,"PART-1-1",           830,       7.31446,      -6.19141,            0.,NA,NA,"",   40.1644E-03,   15.4322E-03,  -37.0813E-03,   1.70474E-03
C:/temp/dataset/8/7_4.odb,Step-1,Increment      1: Step Time =    1.000,"PART-1-1",           831,       6.34046,      -4.95308,            0.,NA,NA,"",   41.2101E-03,   15.7480E-03,  -38.0825E-03,   1.70011E-03
C:/temp/dataset/8/7_4.odb,Step-1,Increment      1: Step Time =    1.000,"PART-1-1",           832,            5.,         13.75,            0.,NA,NA,"",   88.6476E-03,   53.7917E-03,  -70.4617E-03,   3.31948E-03
C:/temp/dataset/8/7_4.odb,Step-1,Increment      1: Step Time =    1.000,"PART-1-1",           833,       7.92352,       13.7239,            0.,NA,NA,"",   94.0747E-03,   57.5508E-03,  -74.4175E-03,   2.60230E-03
C:/temp/dataset/8/7_4.odb,Step-1,Increment      1: Step Time =    1.000,"PART-1-1",           834,       10.1519,       16.6176,            0.,NA,NA,"",   103.788E-03,   64.1436E-03,  -81.5937E-03,   1.92884E-03
C:/temp/dataset/8/7_4.odb,Step-1,Increment      1: Step Time =    1.000,"PART-1-1",           835,       11.3692,       15.2392,            0.,NA,NA,"",   102.063E-03,   63.2287E-03,  -80.1185E-03,   1.66121E-03
C:/temp/dataset/8/7_4.odb,Step-1,Increment      1: Step Time =    1.000,"PART-1-1",           836,       12.5765,       16.3836,            0.,NA,NA,"",   105.258E-03,   65.4710E-03,  -82.4183E-03,   1.27290E-03
C:/temp/dataset/8/7_4.odb,Step-1,Increment      1: Step Time =    1.000,"PART-1-1",           837,       11.3592,       17.7620,            0.,NA,NA,"",   106.561E-03,   66.0841E-03,  -83.5955E-03,   1.51497E-03
C:/temp/dataset/8/7_4.odb,Step-1,Increment      1: Step Time =    1.000,"PART-1-1",           838,           15.,       23.7188,            0.,NA,NA,"",   109.778E-03,   67.4818E-03,  -86.5873E-03,   9.00593E-06
C:/temp/dataset/8/7_4.odb,Step-1,Increment      1: Step Time =    1.000,"PART-1-1",           839,       12.9788,       23.7285,            0.,NA,NA,"",   111.206E-03,   67.2346E-03,  -88.5793E-03,   668.539E-06
C:/temp/dataset/8/7_4.odb,Step-1,Increment      1: Step Time =    1.000,"PART-1-1",           840,           15.,      -11.3062,            0.,NA,NA,"",   39.8005E-03,   18.2401E-03,  -35.3749E-03,   2.13577E-03
C:/temp/dataset/8/7_4.odb,Step-1,Increment      1: Step Time =    1.000,"PART-1-1",           841,           15.,      -3.76875,            0.,NA,NA,"",   56.9413E-03,   25.0340E-03,  -51.1431E-03,   2.54289E-03
C:/temp/dataset/8/7_4.odb,Step-1,Increment      1: Step Time =    1.000,"PART-1-1",           842,       8.77849,      -14.9509,            0.,NA,NA,"",   25.2959E-03,   10.0087E-03,  -23.2316E-03,   2.01178E-03
C:/temp/dataset/8/7_4.odb,Step-1,Increment      1: Step Time =    1.000,"PART-1-1",           843,       8.51352,      -17.2876,            0.,NA,NA,"",   20.5414E-03,   8.21192E-03,  -18.8285E-03,   1.99358E-03
C:/temp/dataset/8/7_4.odb,Step-1,Increment      1: Step Time =    1.000,"PART-1-1",           844,       8.29028,      -19.4067,            0.,NA,NA,"",   16.3203E-03,   6.36632E-03,  -15.0274E-03,   1.81178E-03
C:/temp/dataset/8/7_4.odb,Step-1,Increment      1: Step Time =    1.000,"PART-1-1",           845,       8.54933,      -8.48207,            0.,NA,NA,"",   37.4143E-03,   14.4758E-03,  -34.5004E-03,   1.91098E-03
C:/temp/dataset/8/7_4.odb,Step-1,Increment      1: Step Time =    1.000,"PART-1-1",           846,       9.61157,      -8.87413,            0.,NA,NA,"",   37.9997E-03,   15.0635E-03,  -34.8865E-03,   1.97101E-03
C:/temp/dataset/8/7_4.odb,Step-1,Increment      1: Step Time =    1.000,"PART-1-1",           847,       9.01937,      -7.15061,            0.,NA,NA,"",   40.5149E-03,   15.9440E-03,  -37.2457E-03,   1.89426E-03
C:/temp/dataset/8/7_4.odb,Step-1,Increment      1: Step Time =    1.000,"PART-1-1",           848,           15.,       16.1812,            0.,NA,NA,"",   107.255E-03,   66.2214E-03,  -84.3699E-03,   607.547E-06
C:/temp/dataset/8/7_4.odb,Step-1,Increment      1: Step Time =    1.000,"PART-1-1",           849,       8.94821,       15.2430,            0.,NA,NA,"",   99.6085E-03,   61.2734E-03,  -78.5330E-03,   2.34051E-03
C:/temp/dataset/8/7_4.odb,Step-1,Increment      1: Step Time =    1.000,"PART-1-1",           850,       10.4061,       25.7620,            0.,NA,NA,"",   114.964E-03,   65.1718E-03,  -94.7067E-03,   1.43292E-03
C:/temp/dataset/8/7_4.odb,Step-1,Increment      1: Step Time =    1.000,"PART-1-1",           851,       11.8949,       24.7039,            0.,NA,NA,"",   112.406E-03,   66.3086E-03,  -90.7649E-03,   1.00348E-03
C:/temp/dataset/8/7_4.odb,Step-1,Increment      1: Step Time =    1.000,"PART-1-1",           852,       10.0121,   618.030E-03,            0.,NA,NA,"",   58.7224E-03,   26.4435E-03,  -52.4316E-03,   2.12450E-03
C:/temp/dataset/8/7_4.odb,Step-1,Increment      1: Step Time =    1.000,"PART-1-1",           853,       8.14630,  -483.786E-03,            0.,NA,NA,"",   52.3049E-03,   22.4414E-03,  -47.2460E-03,   1.88341E-03
C:/temp/dataset/8/7_4.odb,Step-1,Increment      1: Step Time =    1.000,"PART-1-1",           854,       9.59300,  -925.178E-03,            0.,NA,NA,"",   54.0946E-03,   23.2256E-03,  -48.8549E-03,   2.03159E-03
C:/temp/dataset/8/7_4.odb,Step-1,Increment      1: Step Time =    1.000,"PART-1-1",           855,       8.91739,      -9.92907,            0.,NA,NA,"",   35.1102E-03,   13.6597E-03,  -32.3440E-03,   1.96059E-03
C:/temp/dataset/8/7_4.odb,Step-1,Increment      1: Step Time =    1.000,"PART-1-1",           856,       9.91925,      -10.6601,            0.,NA,NA,"",   34.9333E-03,   13.9958E-03,  -32.0071E-03,   2.00805E-03
C:/temp/dataset/8/7_4.odb,Step-1,Increment      1: Step Time =    1.000,"PART-1-1",           857,       10.2742,      -21.0973,            0.,NA,NA,"",   15.2971E-03,   6.38302E-03,  -13.9017E-03,   1.91556E-03
C:/temp/dataset/8/7_4.odb,Step-1,Increment      1: Step Time =    1.000,"PART-1-1",           858,       9.54806,      -22.4908,            0.,NA,NA,"",   11.8415E-03,   4.48582E-03,  -10.9589E-03,   1.89070E-03
C:/temp/dataset/8/7_4.odb,Step-1,Increment      1: Step Time =    1.000,"PART-1-1",           859,       10.5666,      -23.0191,            0.,NA,NA,"",   11.8367E-03,   4.87974E-03,  -10.7840E-03,   1.93735E-03
C:/temp/dataset/8/7_4.odb,Step-1,Increment      1: Step Time =    1.000,"PART-1-1",           860,       12.3242,       9.79639,            0.,NA,NA,"",   90.1746E-03,   52.5158E-03,  -73.3045E-03,   1.79734E-03
C:/temp/dataset/8/7_4.odb,Step-1,Increment      1: Step Time =    1.000,"PART-1-1",           861,       7.92117,       5.59347,            0.,NA,NA,"",   68.4595E-03,   36.8585E-03,  -57.6902E-03,   2.11056E-03
C:/temp/dataset/8/7_4.odb,Step-1,Increment      1: Step Time =    1.000,"PART-1-1",           862,       8.33004,      -21.4224,            0.,NA,NA,"",   12.5736E-03,   4.48224E-03,  -11.7475E-03,   1.85377E-03
C:/temp/dataset/8/7_4.odb,Step-1,Increment      1: Step Time =    1.000,"PART-1-1",           863,       7.29914,      -22.4807,            0.,NA,NA,"",   9.40404E-03,   2.63949E-03,  -9.02602E-03,   1.78024E-03
C:/temp/dataset/8/7_4.odb,Step-1,Increment      1: Step Time =    1.000,"PART-1-1",           864,       8.51716,      -23.5491,            0.,NA,NA,"",   8.85404E-03,   2.73516E-03,  -8.42098E-03,   1.77636E-03
C:/temp/dataset/8/7_4.odb,Step-1,Increment      1: Step Time =    1.000,"PART-1-1",           865,       6.99898,  -94.4608E-03,            0.,NA,NA,"",   50.9029E-03,   21.9664E-03,  -45.9193E-03,   1.65915E-03
C:/temp/dataset/8/7_4.odb,Step-1,Increment      1: Step Time =    1.000,"PART-1-1",           866,       6.64294,      -1.54983,            0.,NA,NA,"",   47.4408E-03,   19.3702E-03,  -43.3062E-03,   1.56935E-03
C:/temp/dataset/8/7_4.odb,Step-1,Increment      1: Step Time =    1.000,"PART-1-1",           867,       7.79026,      -1.93916,            0.,NA,NA,"",   48.5809E-03,   19.8996E-03,  -44.3183E-03,   1.81193E-03
C:/temp/dataset/8/7_4.odb,Step-1,Increment      1: Step Time =    1.000,"PART-1-1",           868,       11.5427,  -143.487E-03,            0.,NA,NA,"",   59.8612E-03,   26.6444E-03,  -53.6045E-03,   2.21422E-03
C:/temp/dataset/8/7_4.odb,Step-1,Increment      1: Step Time =    1.000,"PART-1-1",           869,       11.3126,       11.6131,            0.,NA,NA,"",   93.3266E-03,   56.1755E-03,  -74.5263E-03,   1.84967E-03
C:/temp/dataset/8/7_4.odb,Step-1,Increment      1: Step Time =    1.000,"PART-1-1",           870,       9.33019,      -20.3146,            0.,NA,NA,"",   15.7753E-03,   6.33704E-03,  -14.4465E-03,   1.86776E-03
C:/temp/dataset/8/7_4.odb,Step-1,Increment      1: Step Time =    1.000,"PART-1-1",           871,       7.28132,      -3.66733,            0.,NA,NA,"",   44.5145E-03,   17.4887E-03,  -40.9351E-03,   1.77077E-03
C:/temp/dataset/8/7_4.odb,Step-1,Increment      1: Step Time =    1.000,"PART-1-1",           872,       5.82701,      -2.52645,            0.,NA,NA,"",   44.6456E-03,   17.4317E-03,  -41.1019E-03,   1.36843E-03
C:/temp/dataset/8/7_4.odb,Step-1,Increment      1: Step Time =    1.000,"PART-1-1",           873,       10.7738,      -1.22826,            0.,NA,NA,"",   55.6442E-03,   23.9839E-03,  -50.2100E-03,   2.13536E-03
C:/temp/dataset/8/7_4.odb,Step-1,Increment      1: Step Time =    1.000,"PART-1-1",           874,       5.18435,       1.03936,            0.,NA,NA,"",   49.2872E-03,   22.4618E-03,  -43.8714E-03,   1.17645E-03
C:/temp/dataset/8/7_4.odb,Step-1,Increment      1: Step Time =    1.000,"PART-1-1",           875,      -5.71989,       2.55098,            0.,NA,NA,"",   35.4079E-03,   20.4077E-03,  -28.9352E-03,   928.402E-06
C:/temp/dataset/8/7_4.odb,Step-1,Increment      1: Step Time =    1.000,"PART-1-1",           876,      -6.86925,       3.62296,            0.,NA,NA,"",   35.5523E-03,   20.0213E-03,  -29.3788E-03,   1.26158E-03
C:/temp/dataset/8/7_4.odb,Step-1,Increment      1: Step Time =    1.000,"PART-1-1",           877,       11.1755,       23.5651,            0.,NA,NA,"",   112.826E-03,   66.5947E-03,  -91.0759E-03,   1.43974E-03
C:/temp/dataset/8/7_4.odb,Step-1,Increment      1: Step Time =    1.000,"PART-1-1",           878,       10.0167,       23.9572,            0.,NA,NA,"",   114.471E-03,   65.7011E-03,  -93.7393E-03,   2.03098E-03
C:/temp/dataset/8/7_4.odb,Step-1,Increment      1: Step Time =    1.000,"PART-1-1",           879,       10.8015,       21.7536,            0.,NA,NA,"",   111.493E-03,   66.6994E-03,  -89.3412E-03,   1.69375E-03
C:/temp/dataset/8/7_4.odb,Step-1,Increment      1: Step Time =    1.000,"PART-1-1",           880,      -8.16238,      -23.1050,            0.,NA,NA,"",   4.48740E-03,  -912.794E-06,  -4.39358E-03,   931.562E-06
C:/temp/dataset/8/7_4.odb,Step-1,Increment      1: Step Time =    1.000,"PART-1-1",           881,       7.66479,      -7.61710,            0.,NA,NA,"",   37.9533E-03,   14.4608E-03,  -35.0905E-03,   1.84905E-03
C:/temp/dataset/8/7_4.odb,Step-1,Increment      1: Step Time =    1.000,"PART-1-1",           882,       5.33780,      -22.5391,            0.,NA,NA,"",   6.47560E-03,   1.17104E-03,  -6.36884E-03,   1.39894E-03
C:/temp/dataset/8/7_4.odb,Step-1,Increment      1: Step Time =    1.000,"PART-1-1",           883,      -9.54743,       23.1682,            0.,NA,NA,"",   63.4269E-03,   46.4627E-03,  -43.1763E-03,   555.134E-06
C:/temp/dataset/8/7_4.odb,Step-1,Increment      1: Step Time =    1.000,"PART-1-1",           884,      -7.33156,       22.8900,            0.,NA,NA,"",   70.4496E-03,   46.1719E-03,  -53.2100E-03,   1.31659E-03
C:/temp/dataset/8/7_4.odb,Step-1,Increment      1: Step Time =    1.000,"PART-1-1",           885,      -10.1338,       27.3181,            0.,NA,NA,"",   77.3368E-03,   65.0535E-03,  -41.8213E-03,   168.599E-06
C:/temp/dataset/8/7_4.odb,Step-1,Increment      1: Step Time =    1.000,"PART-1-1",           886,      -10.9921,       25.8314,            0.,NA,NA,"",   69.2578E-03,   58.0687E-03,  -37.7448E-03,   200.901E-06
C:/temp/dataset/8/7_4.odb,Step-1,Increment      1: Step Time =    1.000,"PART-1-1",           887,      -9.34891,      -26.6495,            0.,NA,NA,"",   2.00248E-03,  -679.774E-06,  -1.88357E-03,   753.222E-06
C:/temp/dataset/8/7_4.odb,Step-1,Increment      1: Step Time =    1.000,"PART-1-1",           888,      -9.91282,      -25.5457,            0.,NA,NA,"",   2.89800E-03,  -1.10166E-03,  -2.68044E-03,   806.549E-06
C:/temp/dataset/8/7_4.odb,Step-1,Increment      1: Step Time =    1.000,"PART-1-1",           889,       7.84920,      -9.48897,            0.,NA,NA,"",   34.6650E-03,   13.0862E-03,  -32.1001E-03,   1.92845E-03
C:/temp/dataset/8/7_4.odb,Step-1,Increment      1: Step Time =    1.000,"PART-1-1",           890,       10.1788,       14.4028,            0.,NA,NA,"",   98.8987E-03,   60.9773E-03,  -77.8635E-03,   2.00978E-03
C:/temp/dataset/8/7_4.odb,Step-1,Increment      1: Step Time =    1.000,"PART-1-1",           891,       11.2326,       12.9154,            0.,NA,NA,"",   96.5779E-03,   58.9707E-03,  -76.4837E-03,   1.84564E-03
C:/temp/dataset/8/7_4.odb,Step-1,Increment      1: Step Time =    1.000,"PART-1-1",           892,       9.23404,       11.5815,            0.,NA,NA,"",   89.8367E-03,   54.3123E-03,  -71.5598E-03,   2.25912E-03
C:/temp/dataset/8/7_4.odb,Step-1,Increment      1: Step Time =    1.000,"PART-1-1",           893,   112.429E-03,       26.3323,            0.,NA,NA,"",   117.836E-03,   58.6035E-03,  -102.230E-03,   2.38401E-03
C:/temp/dataset/8/7_4.odb,Step-1,Increment      1: Step Time =    1.000,"PART-1-1",           894,       9.25881,       26.1684,            0.,NA,NA,"",   117.818E-03,   64.7138E-03,  -98.4538E-03,   2.13215E-03
C:/temp/dataset/8/7_4.odb,Step-1,Increment      1: Step Time =    1.000,"PART-1-1",           895,       7.09344,       26.4940,            0.,NA,NA,"",   124.231E-03,   63.6577E-03,  -106.682E-03,   3.39089E-03
C:/temp/dataset/8/7_4.odb,Step-1,Increment      1: Step Time =    1.000,"PART-1-1",           896,       7.75521,       25.3319,            0.,NA,NA,"",   120.477E-03,   63.8018E-03,  -102.197E-03,   3.16490E-03
C:/temp/dataset/8/7_4.odb,Step-1,Increment      1: Step Time =    1.000,"PART-1-1",           897,      -7.14155,      -26.6171,            0.,NA,NA,"",   1.70283E-03,  -149.547E-06,  -1.69626E-03,   677.807E-06
C:/temp/dataset/8/7_4.odb,Step-1,Increment      1: Step Time =    1.000,"PART-1-1",           898,      -8.08000,      -25.5235,            0.,NA,NA,"",   2.58421E-03,  -515.201E-06,  -2.53233E-03,   769.453E-06
C:/temp/dataset/8/7_4.odb,Step-1,Increment      1: Step Time =    1.000,"PART-1-1",           899,      -8.48057,      -5.93862,            0.,NA,NA,"",   22.1185E-03,   9.64163E-03,  -19.9064E-03,   914.139E-06
C:/temp/dataset/8/7_4.odb,Step-1,Increment      1: Step Time =    1.000,"PART-1-1",           900,      -8.12610,       27.0862,            0.,NA,NA,"",   82.2658E-03,   64.1148E-03,  -51.5456E-03,   364.172E-06
C:/temp/dataset/8/7_4.odb,Step-1,Increment      1: Step Time =    1.000,"PART-1-1",           901,      -9.26041,       26.3166,            0.,NA,NA,"",   75.8162E-03,   60.4629E-03,  -45.7420E-03,   289.464E-06
C:/temp/dataset/8/7_4.odb,Step-1,Increment      1: Step Time =    1.000,"PART-1-1",           902,      -11.3442,       15.0048,            0.,NA,NA,"",   40.5230E-03,   22.5939E-03,  -33.6398E-03,   712.711E-06
C:/temp/dataset/8/7_4.odb,Step-1,Increment      1: Step Time =    1.000,"PART-1-1",           903,      -11.3385,       12.5628,            0.,NA,NA,"",   38.0195E-03,   19.8937E-03,  -32.3995E-03,   837.430E-06
C:/temp/dataset/8/7_4.odb,Step-1,Increment      1: Step Time =    1.000,"PART-1-1",           904,      -8.76514,       3.13980,            0.,NA,NA,"",   33.1882E-03,   18.4476E-03,  -27.5889E-03,   1.16668E-03
C:/temp/dataset/8/7_4.odb,Step-1,Increment      1: Step Time =    1.000,"PART-1-1",           905,      -10.2716,  -495.292E-03,            0.,NA,NA,"",   27.4767E-03,   15.1119E-03,  -22.9478E-03,   1.01772E-03
C:/temp/dataset/8/7_4.odb,Step-1,Increment      1: Step Time =    1.000,"PART-1-1",           906,      -8.74135,  -976.005E-03,            0.,NA,NA,"",   28.4069E-03,   15.4971E-03,  -23.8074E-03,   983.620E-06
C:/temp/dataset/8/7_4.odb,Step-1,Increment      1: Step Time =    1.000,"PART-1-1",           907,      -12.2685,      -22.3380,            0.,NA,NA,"",   5.60170E-03,  -2.53846E-03,  -4.99353E-03,   742.512E-06
C:/temp/dataset/8/7_4.odb,Step-1,Increment      1: Step Time =    1.000,"PART-1-1",           908,  -128.822E-03,      -26.2855,            0.,NA,NA,"",   755.349E-06,  -132.263E-06,  -743.679E-06,   327.776E-06
C:/temp/dataset/8/7_4.odb,Step-1,Increment      1: Step Time =    1.000,"PART-1-1",           909,       9.08441,      -12.4818,            0.,NA,NA,"",   30.3998E-03,   11.9622E-03,  -27.9473E-03,   2.00447E-03
C:/temp/dataset/8/7_4.odb,Step-1,Increment      1: Step Time =    1.000,"PART-1-1",           910,      -10.0834,       11.4216,            0.,NA,NA,"",   38.8789E-03,   19.5215E-03,  -33.6226E-03,   1.10175E-03
C:/temp/dataset/8/7_4.odb,Step-1,Increment      1: Step Time =    1.000,"PART-1-1",           911,      -11.2862,       10.1474,            0.,NA,NA,"",   36.0845E-03,   18.4750E-03,  -30.9962E-03,   922.621E-06
C:/temp/dataset/8/7_4.odb,Step-1,Increment      1: Step Time =    1.000,"PART-1-1",           912,      -6.58594,       1.63223,            0.,NA,NA,"",   33.7138E-03,   19.1651E-03,  -27.7366E-03,   966.443E-06
C:/temp/dataset/8/7_4.odb,Step-1,Increment      1: Step Time =    1.000,"PART-1-1",           913,      -11.0544,       22.2894,            0.,NA,NA,"",   56.2774E-03,   42.6051E-03,  -36.7688E-03,   310.362E-06
C:/temp/dataset/8/7_4.odb,Step-1,Increment      1: Step Time =    1.000,"PART-1-1",           914,      -10.5857,       24.6765,            0.,NA,NA,"",   65.8634E-03,   52.8594E-03,  -39.2920E-03,   304.519E-06
C:/temp/dataset/8/7_4.odb,Step-1,Increment      1: Step Time =    1.000,"PART-1-1",           915,      -9.16144,      -24.4379,            0.,NA,NA,"",   3.60766E-03,  -1.07070E-03,  -3.44511E-03,   849.998E-06
C:/temp/dataset/8/7_4.odb,Step-1,Increment      1: Step Time =    1.000,"PART-1-1",           916,       10.2685,      -27.1971,            0.,NA,NA,"",   3.92810E-03,   1.37004E-03,  -3.68144E-03,   1.73128E-03
C:/temp/dataset/8/7_4.odb,Step-1,Increment      1: Step Time =    1.000,"PART-1-1",           917,       11.0541,      -20.1271,            0.,NA,NA,"",   18.0381E-03,   7.91871E-03,  -16.2070E-03,   1.94164E-03
C:/temp/dataset/8/7_4.odb,Step-1,Increment      1: Step Time =    1.000,"PART-1-1",           918,       9.15406,       12.8837,            0.,NA,NA,"",   93.4949E-03,   57.1274E-03,  -74.0119E-03,   2.25718E-03
C:/temp/dataset/8/7_4.odb,Step-1,Increment      1: Step Time =    1.000,"PART-1-1",           919,       12.2594,       22.5896,            0.,NA,NA,"",   111.404E-03,   67.4689E-03,  -88.6493E-03,   1.10267E-03
C:/temp/dataset/8/7_4.odb,Step-1,Increment      1: Step Time =    1.000,"PART-1-1",           920,       11.4390,       20.5291,            0.,NA,NA,"",   110.067E-03,   67.2179E-03,  -87.1577E-03,   1.48954E-03
C:/temp/dataset/8/7_4.odb,Step-1,Increment      1: Step Time =    1.000,"PART-1-1",           921,       9.26936,      -2.41689,            0.,NA,NA,"",   50.1627E-03,   20.7362E-03,  -45.6761E-03,   1.97571E-03
C:/temp/dataset/8/7_4.odb,Step-1,Increment      1: Step Time =    1.000,"PART-1-1",           922,       5.58568,  -453.309E-03,            0.,NA,NA,"",   47.5811E-03,   20.1989E-03,  -43.0809E-03,   1.19795E-03
C:/temp/dataset/8/7_4.odb,Step-1,Increment      1: Step Time =    1.000,"PART-1-1",           923,      -8.35205,   877.030E-03,            0.,NA,NA,"",   31.0960E-03,   17.4196E-03,  -25.7589E-03,   1.03174E-03
C:/temp/dataset/8/7_4.odb,Step-1,Increment      1: Step Time =    1.000,"PART-1-1",           924,      -7.85594,       2.30266,            0.,NA,NA,"",   33.2303E-03,   18.7225E-03,  -27.4539E-03,   1.10923E-03
C:/temp/dataset/8/7_4.odb,Step-1,Increment      1: Step Time =    1.000,"PART-1-1",           925,      -6.37117,       23.7044,            0.,NA,NA,"",   77.6744E-03,   50.0949E-03,  -59.3617E-03,   1.66841E-03
C:/temp/dataset/8/7_4.odb,Step-1,Increment      1: Step Time =    1.000,"PART-1-1",           926,       8.86937,       24.3636,            0.,NA,NA,"",   116.662E-03,   64.6717E-03,  -97.0963E-03,   2.64705E-03
C:/temp/dataset/8/7_4.odb,Step-1,Increment      1: Step Time =    1.000,"PART-1-1",           927,       8.44688,      -11.4338,            0.,NA,NA,"",   31.6589E-03,   12.1374E-03,  -29.2399E-03,   1.98487E-03
