ODB Name,Step,Frame,Part Instance Name,    êﬂì_ÉâÉxÉã,X,Y,Z,Section Name,Material Name,Section Point,   U-Magnitude,          U-U1,          U-U2,       S-Mises
C:/temp/dataset/test2/10_5.odb,Step-1,Increment      1: Step Time =    1.000,"PART-1-1",             1,            5.,           30.,            0.,NA,NA,"",       3.25759,      -3.25058,   213.676E-03,   123.217E-12
C:/temp/dataset/test2/10_5.odb,Step-1,Increment      1: Step Time =    1.000,"PART-1-1",             2,            3.,           30.,            0.,NA,NA,"",       3.24829,      -3.24695,   93.3073E-03,   1.02189E-09
C:/temp/dataset/test2/10_5.odb,Step-1,Increment      1: Step Time =    1.000,"PART-1-1",             3,            1.,           30.,            0.,NA,NA,"",       3.24344,      -3.24332,  -27.0616E-03,   2.33753E-09
C:/temp/dataset/test2/10_5.odb,Step-1,Increment      1: Step Time =    1.000,"PART-1-1",             4,           -1.,           30.,            0.,NA,NA,"",       3.24305,      -3.23970,  -147.431E-03,   2.33907E-09
C:/temp/dataset/test2/10_5.odb,Step-1,Increment      1: Step Time =    1.000,"PART-1-1",             5,           -3.,           30.,            0.,NA,NA,"",       3.24714,      -3.23607,  -267.799E-03,   1.02515E-09
C:/temp/dataset/test2/10_5.odb,Step-1,Increment      1: Step Time =    1.000,"PART-1-1",             6,           -5.,           30.,            0.,NA,NA,"",       3.25567,      -3.23245,  -388.168E-03,   123.080E-12
C:/temp/dataset/test2/10_5.odb,Step-1,Increment      1: Step Time =    1.000,"PART-1-1",             7,            5.,        28.125,            0.,NA,NA,"",       3.14523,      -3.13773,   217.075E-03,   1.01878E-09
C:/temp/dataset/test2/10_5.odb,Step-1,Increment      1: Step Time =    1.000,"PART-1-1",             8,            3.,        28.125,            0.,NA,NA,"",       3.13560,      -3.13410,   96.7061E-03,   1.55479E-09
C:/temp/dataset/test2/10_5.odb,Step-1,Increment      1: Step Time =    1.000,"PART-1-1",             9,            1.,        28.125,            0.,NA,NA,"",       3.13057,      -3.13048,  -23.6628E-03,   652.839E-12
C:/temp/dataset/test2/10_5.odb,Step-1,Increment      1: Step Time =    1.000,"PART-1-1",            10,           -1.,        28.125,            0.,NA,NA,"",       3.13017,      -3.12685,  -144.032E-03,   648.086E-12
C:/temp/dataset/test2/10_5.odb,Step-1,Increment      1: Step Time =    1.000,"PART-1-1",            11,           -3.,        28.125,            0.,NA,NA,"",       3.13440,      -3.12323,  -264.401E-03,   1.55194E-09
C:/temp/dataset/test2/10_5.odb,Step-1,Increment      1: Step Time =    1.000,"PART-1-1",            12,           -5.,        28.125,            0.,NA,NA,"",       3.14324,      -3.11960,  -384.769E-03,   1.01511E-09
C:/temp/dataset/test2/10_5.odb,Step-1,Increment      1: Step Time =    1.000,"PART-1-1",            13,            5.,         26.25,            0.,NA,NA,"",       3.03291,      -3.02488,   220.474E-03,   2.65483E-09
C:/temp/dataset/test2/10_5.odb,Step-1,Increment      1: Step Time =    1.000,"PART-1-1",            14,            3.,         26.25,            0.,NA,NA,"",       3.02292,      -3.02126,   100.105E-03,   1.06018E-09
C:/temp/dataset/test2/10_5.odb,Step-1,Increment      1: Step Time =    1.000,"PART-1-1",            15,            1.,         26.25,            0.,NA,NA,"",       3.01770,      -3.01763,  -20.2639E-03,   3.17357E-09
C:/temp/dataset/test2/10_5.odb,Step-1,Increment      1: Step Time =    1.000,"PART-1-1",            16,           -1.,         26.25,            0.,NA,NA,"",       3.01729,      -3.01401,  -140.633E-03,   3.17502E-09
C:/temp/dataset/test2/10_5.odb,Step-1,Increment      1: Step Time =    1.000,"PART-1-1",            17,           -3.,         26.25,            0.,NA,NA,"",       3.02168,      -3.01038,  -261.002E-03,   1.06164E-09
C:/temp/dataset/test2/10_5.odb,Step-1,Increment      1: Step Time =    1.000,"PART-1-1",            18,           -5.,         26.25,            0.,NA,NA,"",       3.03085,      -3.00676,  -381.371E-03,   2.64722E-09
C:/temp/dataset/test2/10_5.odb,Step-1,Increment      1: Step Time =    1.000,"PART-1-1",            19,            5.,        24.375,            0.,NA,NA,"",       2.92063,      -2.91204,   223.873E-03,   1.71215E-09
C:/temp/dataset/test2/10_5.odb,Step-1,Increment      1: Step Time =    1.000,"PART-1-1",            20,            3.,        24.375,            0.,NA,NA,"",       2.91025,      -2.90841,   103.504E-03,   8.18060E-09
C:/temp/dataset/test2/10_5.odb,Step-1,Increment      1: Step Time =    1.000,"PART-1-1",            21,            1.,        24.375,            0.,NA,NA,"",       2.90484,      -2.90479,  -16.8651E-03,   12.6692E-09
C:/temp/dataset/test2/10_5.odb,Step-1,Increment      1: Step Time =    1.000,"PART-1-1",            22,           -1.,        24.375,            0.,NA,NA,"",       2.90441,      -2.90116,  -137.234E-03,   12.6709E-09
C:/temp/dataset/test2/10_5.odb,Step-1,Increment      1: Step Time =    1.000,"PART-1-1",            23,           -3.,        24.375,            0.,NA,NA,"",       2.90896,      -2.89754,  -257.603E-03,   8.18527E-09
C:/temp/dataset/test2/10_5.odb,Step-1,Increment      1: Step Time =    1.000,"PART-1-1",            24,           -5.,        24.375,            0.,NA,NA,"",       2.91849,      -2.89391,  -377.972E-03,   1.70009E-09
C:/temp/dataset/test2/10_5.odb,Step-1,Increment      1: Step Time =    1.000,"PART-1-1",            25,            5.,          22.5,            0.,NA,NA,"",       2.80840,      -2.79919,   227.272E-03,   9.33554E-09
C:/temp/dataset/test2/10_5.odb,Step-1,Increment      1: Step Time =    1.000,"PART-1-1",            26,            3.,          22.5,            0.,NA,NA,"",       2.79761,      -2.79557,   106.903E-03,   28.9239E-09
C:/temp/dataset/test2/10_5.odb,Step-1,Increment      1: Step Time =    1.000,"PART-1-1",            27,            1.,          22.5,            0.,NA,NA,"",       2.79197,      -2.79194,  -13.4662E-03,   37.4053E-09
C:/temp/dataset/test2/10_5.odb,Step-1,Increment      1: Step Time =    1.000,"PART-1-1",            28,           -1.,          22.5,            0.,NA,NA,"",       2.79153,      -2.78832,  -133.835E-03,   37.4066E-09
C:/temp/dataset/test2/10_5.odb,Step-1,Increment      1: Step Time =    1.000,"PART-1-1",            29,           -3.,          22.5,            0.,NA,NA,"",       2.79627,      -2.78469,  -254.204E-03,   28.9314E-09
C:/temp/dataset/test2/10_5.odb,Step-1,Increment      1: Step Time =    1.000,"PART-1-1",            30,           -5.,          22.5,            0.,NA,NA,"",       2.80618,      -2.78106,  -374.573E-03,   9.35465E-09
C:/temp/dataset/test2/10_5.odb,Step-1,Increment      1: Step Time =    1.000,"PART-1-1",            31,            5.,        20.625,            0.,NA,NA,"",       2.69623,      -2.68635,   230.670E-03,   46.0794E-09
C:/temp/dataset/test2/10_5.odb,Step-1,Increment      1: Step Time =    1.000,"PART-1-1",            32,            3.,        20.625,            0.,NA,NA,"",       2.68499,      -2.68272,   110.302E-03,   75.9024E-09
C:/temp/dataset/test2/10_5.odb,Step-1,Increment      1: Step Time =    1.000,"PART-1-1",            33,            1.,        20.625,            0.,NA,NA,"",       2.67911,      -2.67910,  -10.0674E-03,   90.8077E-09
C:/temp/dataset/test2/10_5.odb,Step-1,Increment      1: Step Time =    1.000,"PART-1-1",            34,           -1.,        20.625,            0.,NA,NA,"",       2.67865,      -2.67547,  -130.436E-03,   90.8020E-09
C:/temp/dataset/test2/10_5.odb,Step-1,Increment      1: Step Time =    1.000,"PART-1-1",            35,           -3.,        20.625,            0.,NA,NA,"",       2.68359,      -2.67184,  -250.805E-03,   75.9032E-09
C:/temp/dataset/test2/10_5.odb,Step-1,Increment      1: Step Time =    1.000,"PART-1-1",            36,           -5.,        20.625,            0.,NA,NA,"",       2.69391,      -2.66822,  -371.174E-03,   46.1157E-09
C:/temp/dataset/test2/10_5.odb,Step-1,Increment      1: Step Time =    1.000,"PART-1-1",            37,            5.,         18.75,            0.,NA,NA,"",       2.58412,      -2.57350,   234.069E-03,   140.854E-09
C:/temp/dataset/test2/10_5.odb,Step-1,Increment      1: Step Time =    1.000,"PART-1-1",            38,            3.,         18.75,            0.,NA,NA,"",       2.57239,      -2.56988,   113.700E-03,   164.470E-09
C:/temp/dataset/test2/10_5.odb,Step-1,Increment      1: Step Time =    1.000,"PART-1-1",            39,            1.,         18.75,            0.,NA,NA,"",       2.56626,      -2.56625,  -6.66873E-03,   185.918E-09
C:/temp/dataset/test2/10_5.odb,Step-1,Increment      1: Step Time =    1.000,"PART-1-1",            40,           -1.,         18.75,            0.,NA,NA,"",       2.56577,      -2.56262,  -127.038E-03,   185.875E-09
C:/temp/dataset/test2/10_5.odb,Step-1,Increment      1: Step Time =    1.000,"PART-1-1",            41,           -3.,         18.75,            0.,NA,NA,"",       2.57093,      -2.55900,  -247.406E-03,   164.407E-09
C:/temp/dataset/test2/10_5.odb,Step-1,Increment      1: Step Time =    1.000,"PART-1-1",            42,           -5.,         18.75,            0.,NA,NA,"",       2.58170,      -2.55537,  -367.775E-03,   140.882E-09
C:/temp/dataset/test2/10_5.odb,Step-1,Increment      1: Step Time =    1.000,"PART-1-1",            43,            5.,        16.875,            0.,NA,NA,"",       2.47209,      -2.46065,   237.469E-03,   342.924E-09
C:/temp/dataset/test2/10_5.odb,Step-1,Increment      1: Step Time =    1.000,"PART-1-1",            44,            3.,        16.875,            0.,NA,NA,"",       2.45982,      -2.45703,   117.099E-03,   293.201E-09
C:/temp/dataset/test2/10_5.odb,Step-1,Increment      1: Step Time =    1.000,"PART-1-1",            45,            1.,        16.875,            0.,NA,NA,"",       2.45341,      -2.45340,  -3.27018E-03,   312.527E-09
C:/temp/dataset/test2/10_5.odb,Step-1,Increment      1: Step Time =    1.000,"PART-1-1",            46,           -1.,        16.875,            0.,NA,NA,"",       2.45290,      -2.44978,  -123.639E-03,   312.285E-09
C:/temp/dataset/test2/10_5.odb,Step-1,Increment      1: Step Time =    1.000,"PART-1-1",            47,           -3.,        16.875,            0.,NA,NA,"",       2.45829,      -2.44615,  -244.007E-03,   292.721E-09
C:/temp/dataset/test2/10_5.odb,Step-1,Increment      1: Step Time =    1.000,"PART-1-1",            48,           -5.,        16.875,            0.,NA,NA,"",       2.46956,      -2.44253,  -364.376E-03,   342.765E-09
C:/temp/dataset/test2/10_5.odb,Step-1,Increment      1: Step Time =    1.000,"PART-1-1",            49,            5.,           15.,            0.,NA,NA,"",       2.36013,      -2.34781,   240.868E-03,   695.138E-09
C:/temp/dataset/test2/10_5.odb,Step-1,Increment      1: Step Time =    1.000,"PART-1-1",            50,            3.,           15.,            0.,NA,NA,"",       2.34728,      -2.34418,   120.498E-03,   383.943E-09
C:/temp/dataset/test2/10_5.odb,Step-1,Increment      1: Step Time =    1.000,"PART-1-1",            51,            1.,           15.,            0.,NA,NA,"",       2.34056,      -2.34056,   128.216E-06,   387.740E-09
C:/temp/dataset/test2/10_5.odb,Step-1,Increment      1: Step Time =    1.000,"PART-1-1",            52,           -1.,           15.,            0.,NA,NA,"",       2.34002,      -2.33693,  -120.241E-03,   386.725E-09
C:/temp/dataset/test2/10_5.odb,Step-1,Increment      1: Step Time =    1.000,"PART-1-1",            53,           -3.,           15.,            0.,NA,NA,"",       2.34568,      -2.33331,  -240.608E-03,   381.787E-09
C:/temp/dataset/test2/10_5.odb,Step-1,Increment      1: Step Time =    1.000,"PART-1-1",            54,           -5.,           15.,            0.,NA,NA,"",       2.35748,      -2.32968,  -360.976E-03,   693.580E-09
C:/temp/dataset/test2/10_5.odb,Step-1,Increment      1: Step Time =    1.000,"PART-1-1",            55,            5.,        13.125,            0.,NA,NA,"",       2.24827,      -2.23496,   244.269E-03,   1.13121E-06
C:/temp/dataset/test2/10_5.odb,Step-1,Increment      1: Step Time =    1.000,"PART-1-1",            56,            3.,        13.125,            0.,NA,NA,"",       2.23477,      -2.23134,   123.897E-03,   222.682E-09
C:/temp/dataset/test2/10_5.odb,Step-1,Increment      1: Step Time =    1.000,"PART-1-1",            57,            1.,        13.125,            0.,NA,NA,"",       2.22771,      -2.22771,   3.52675E-03,   548.714E-09
C:/temp/dataset/test2/10_5.odb,Step-1,Increment      1: Step Time =    1.000,"PART-1-1",            58,           -1.,        13.125,            0.,NA,NA,"",       2.22715,      -2.22409,  -116.842E-03,   547.753E-09
C:/temp/dataset/test2/10_5.odb,Step-1,Increment      1: Step Time =    1.000,"PART-1-1",            59,           -3.,        13.125,            0.,NA,NA,"",       2.23310,      -2.22046,  -237.210E-03,   220.188E-09
C:/temp/dataset/test2/10_5.odb,Step-1,Increment      1: Step Time =    1.000,"PART-1-1",            60,           -5.,        13.125,            0.,NA,NA,"",       2.24549,      -2.21684,  -357.576E-03,   1.12327E-06
C:/temp/dataset/test2/10_5.odb,Step-1,Increment      1: Step Time =    1.000,"PART-1-1",            61,            5.,         11.25,            0.,NA,NA,"",       2.13652,      -2.12211,   247.670E-03,   1.17933E-06
C:/temp/dataset/test2/10_5.odb,Step-1,Increment      1: Step Time =    1.000,"PART-1-1",            62,            3.,         11.25,            0.,NA,NA,"",       2.12231,      -2.11849,   127.296E-03,   1.50907E-06
C:/temp/dataset/test2/10_5.odb,Step-1,Increment      1: Step Time =    1.000,"PART-1-1",            63,            1.,         11.25,            0.,NA,NA,"",       2.11488,      -2.11486,   6.92655E-03,   2.51452E-06
C:/temp/dataset/test2/10_5.odb,Step-1,Increment      1: Step Time =    1.000,"PART-1-1",            64,           -1.,         11.25,            0.,NA,NA,"",       2.11429,      -2.11124,  -113.443E-03,   2.51464E-06
C:/temp/dataset/test2/10_5.odb,Step-1,Increment      1: Step Time =    1.000,"PART-1-1",            65,           -3.,         11.25,            0.,NA,NA,"",       2.12055,      -2.10762,  -233.811E-03,   1.52555E-06
C:/temp/dataset/test2/10_5.odb,Step-1,Increment      1: Step Time =    1.000,"PART-1-1",            66,           -5.,         11.25,            0.,NA,NA,"",       2.13360,      -2.10400,  -354.175E-03,   1.14940E-06
C:/temp/dataset/test2/10_5.odb,Step-1,Increment      1: Step Time =    1.000,"PART-1-1",            67,            5.,         9.375,            0.,NA,NA,"",       2.02488,      -2.00926,   251.071E-03,   919.629E-09
C:/temp/dataset/test2/10_5.odb,Step-1,Increment      1: Step Time =    1.000,"PART-1-1",            68,            3.,         9.375,            0.,NA,NA,"",       2.00988,      -2.00563,   130.696E-03,   6.35125E-06
C:/temp/dataset/test2/10_5.odb,Step-1,Increment      1: Step Time =    1.000,"PART-1-1",            69,            1.,         9.375,            0.,NA,NA,"",       2.00204,      -2.00201,   10.3308E-03,   8.52110E-06
C:/temp/dataset/test2/10_5.odb,Step-1,Increment      1: Step Time =    1.000,"PART-1-1",            70,           -1.,         9.375,            0.,NA,NA,"",       2.00143,      -1.99840,  -110.039E-03,   8.49391E-06
C:/temp/dataset/test2/10_5.odb,Step-1,Increment      1: Step Time =    1.000,"PART-1-1",            71,           -3.,         9.375,            0.,NA,NA,"",       2.00805,      -1.99479,  -230.413E-03,   6.34976E-06
C:/temp/dataset/test2/10_5.odb,Step-1,Increment      1: Step Time =    1.000,"PART-1-1",            72,           -5.,         9.375,            0.,NA,NA,"",       2.02182,      -1.99116,  -350.776E-03,   988.162E-09
C:/temp/dataset/test2/10_5.odb,Step-1,Increment      1: Step Time =    1.000,"PART-1-1",            73,            5.,           7.5,            0.,NA,NA,"",       1.91339,      -1.89639,   254.465E-03,   8.99109E-06
C:/temp/dataset/test2/10_5.odb,Step-1,Increment      1: Step Time =    1.000,"PART-1-1",            74,            3.,           7.5,            0.,NA,NA,"",       1.89750,      -1.89276,   134.095E-03,   18.4505E-06
C:/temp/dataset/test2/10_5.odb,Step-1,Increment      1: Step Time =    1.000,"PART-1-1",            75,            1.,           7.5,            0.,NA,NA,"",       1.88921,      -1.88916,   13.7468E-03,   22.5616E-06
C:/temp/dataset/test2/10_5.odb,Step-1,Increment      1: Step Time =    1.000,"PART-1-1",            76,           -1.,           7.5,            0.,NA,NA,"",       1.88858,      -1.88557,  -106.625E-03,   22.3761E-06
C:/temp/dataset/test2/10_5.odb,Step-1,Increment      1: Step Time =    1.000,"PART-1-1",            77,           -3.,           7.5,            0.,NA,NA,"",       1.89560,      -1.88196,  -227.016E-03,   18.1542E-06
C:/temp/dataset/test2/10_5.odb,Step-1,Increment      1: Step Time =    1.000,"PART-1-1",            78,           -5.,           7.5,            0.,NA,NA,"",       1.91019,      -1.87833,  -347.384E-03,   9.03364E-06
C:/temp/dataset/test2/10_5.odb,Step-1,Increment      1: Step Time =    1.000,"PART-1-1",            79,            5.,         5.625,            0.,NA,NA,"",       1.80205,      -1.78351,   257.836E-03,   32.2416E-06
C:/temp/dataset/test2/10_5.odb,Step-1,Increment      1: Step Time =    1.000,"PART-1-1",            80,            3.,         5.625,            0.,NA,NA,"",       1.78518,      -1.77987,   137.496E-03,   43.9757E-06
C:/temp/dataset/test2/10_5.odb,Step-1,Increment      1: Step Time =    1.000,"PART-1-1",            81,            1.,         5.625,            0.,NA,NA,"",       1.77638,      -1.77630,   17.1888E-03,   50.1881E-06
C:/temp/dataset/test2/10_5.odb,Step-1,Increment      1: Step Time =    1.000,"PART-1-1",            82,           -1.,         5.625,            0.,NA,NA,"",       1.77574,      -1.77274,  -103.187E-03,   49.0754E-06
C:/temp/dataset/test2/10_5.odb,Step-1,Increment      1: Step Time =    1.000,"PART-1-1",            83,           -3.,         5.625,            0.,NA,NA,"",       1.78323,      -1.76916,  -223.622E-03,   41.7803E-06
C:/temp/dataset/test2/10_5.odb,Step-1,Increment      1: Step Time =    1.000,"PART-1-1",            84,           -5.,         5.625,            0.,NA,NA,"",       1.79872,      -1.76552,  -344.016E-03,   31.5775E-06
C:/temp/dataset/test2/10_5.odb,Step-1,Increment      1: Step Time =    1.000,"PART-1-1",            85,            5.,          3.75,            0.,NA,NA,"",       1.69092,      -1.67063,   261.142E-03,   89.2462E-06
C:/temp/dataset/test2/10_5.odb,Step-1,Increment      1: Step Time =    1.000,"PART-1-1",            86,            3.,          3.75,            0.,NA,NA,"",       1.67292,      -1.66698,   140.896E-03,   88.3729E-06
C:/temp/dataset/test2/10_5.odb,Step-1,Increment      1: Step Time =    1.000,"PART-1-1",            87,            1.,          3.75,            0.,NA,NA,"",       1.66357,      -1.66344,   20.6785E-03,   93.6480E-06
C:/temp/dataset/test2/10_5.odb,Step-1,Increment      1: Step Time =    1.000,"PART-1-1",            88,           -1.,          3.75,            0.,NA,NA,"",       1.66292,      -1.65993,  -99.7078E-03,   89.1666E-06
C:/temp/dataset/test2/10_5.odb,Step-1,Increment      1: Step Time =    1.000,"PART-1-1",            89,           -3.,          3.75,            0.,NA,NA,"",       1.67093,      -1.65636,  -220.232E-03,   78.7241E-06
C:/temp/dataset/test2/10_5.odb,Step-1,Increment      1: Step Time =    1.000,"PART-1-1",            90,           -5.,          3.75,            0.,NA,NA,"",       1.68744,      -1.65269,  -340.706E-03,   81.7403E-06
C:/temp/dataset/test2/10_5.odb,Step-1,Increment      1: Step Time =    1.000,"PART-1-1",            91,            5.,         1.875,            0.,NA,NA,"",       1.58006,      -1.55780,   264.314E-03,   203.894E-06
C:/temp/dataset/test2/10_5.odb,Step-1,Increment      1: Step Time =    1.000,"PART-1-1",            92,            3.,         1.875,            0.,NA,NA,"",       1.56081,      -1.55412,   144.305E-03,   149.223E-06
C:/temp/dataset/test2/10_5.odb,Step-1,Increment      1: Step Time =    1.000,"PART-1-1",            93,            1.,         1.875,            0.,NA,NA,"",       1.55081,      -1.55062,   24.2358E-03,   139.494E-06
C:/temp/dataset/test2/10_5.odb,Step-1,Increment      1: Step Time =    1.000,"PART-1-1",            94,           -1.,         1.875,            0.,NA,NA,"",       1.55009,      -1.54711,  -96.1796E-03,   124.402E-06
C:/temp/dataset/test2/10_5.odb,Step-1,Increment      1: Step Time =    1.000,"PART-1-1",            95,           -3.,         1.875,            0.,NA,NA,"",       1.55867,      -1.54351,  -216.852E-03,   112.230E-06
C:/temp/dataset/test2/10_5.odb,Step-1,Increment      1: Step Time =    1.000,"PART-1-1",            96,           -5.,         1.875,            0.,NA,NA,"",       1.57634,      -1.53979,  -337.508E-03,   169.900E-06
C:/temp/dataset/test2/10_5.odb,Step-1,Increment      1: Step Time =    1.000,"PART-1-1",            97,            5.,            0.,            0.,NA,NA,"",       1.46975,      -1.44527,   267.140E-03,   435.941E-06
C:/temp/dataset/test2/10_5.odb,Step-1,Increment      1: Step Time =    1.000,"PART-1-1",            98,            3.,            0.,            0.,NA,NA,"",       1.44908,      -1.44153,   147.714E-03,   146.591E-06
C:/temp/dataset/test2/10_5.odb,Step-1,Increment      1: Step Time =    1.000,"PART-1-1",            99,            1.,            0.,            0.,NA,NA,"",       1.43818,      -1.43792,   27.8208E-03,   164.745E-06
C:/temp/dataset/test2/10_5.odb,Step-1,Increment      1: Step Time =    1.000,"PART-1-1",           100,           -1.,            0.,            0.,NA,NA,"",       1.43717,      -1.43418,  -92.6481E-03,   120.398E-06
C:/temp/dataset/test2/10_5.odb,Step-1,Increment      1: Step Time =    1.000,"PART-1-1",           101,           -3.,            0.,            0.,NA,NA,"",       1.44629,      -1.43044,  -213.485E-03,   86.2715E-06
C:/temp/dataset/test2/10_5.odb,Step-1,Increment      1: Step Time =    1.000,"PART-1-1",           102,           -5.,            0.,            0.,NA,NA,"",       1.46532,      -1.42664,  -334.473E-03,   278.825E-06
C:/temp/dataset/test2/10_5.odb,Step-1,Increment      1: Step Time =    1.000,"PART-1-1",           103,            5.,        -1.875,            0.,NA,NA,"",       1.36069,      -1.33372,   269.574E-03,   990.769E-06
C:/temp/dataset/test2/10_5.odb,Step-1,Increment      1: Step Time =    1.000,"PART-1-1",           104,            3.,        -1.875,            0.,NA,NA,"",       1.33827,      -1.32970,   151.192E-03,   623.698E-06
C:/temp/dataset/test2/10_5.odb,Step-1,Increment      1: Step Time =    1.000,"PART-1-1",           105,            1.,        -1.875,            0.,NA,NA,"",       1.32574,      -1.32537,   31.1545E-03,   591.983E-06
C:/temp/dataset/test2/10_5.odb,Step-1,Increment      1: Step Time =    1.000,"PART-1-1",           106,           -1.,        -1.875,            0.,NA,NA,"",       1.32387,      -1.32086,  -89.2690E-03,   425.718E-06
C:/temp/dataset/test2/10_5.odb,Step-1,Increment      1: Step Time =    1.000,"PART-1-1",           107,           -3.,        -1.875,            0.,NA,NA,"",       1.33345,      -1.31679,  -210.104E-03,   192.356E-06
C:/temp/dataset/test2/10_5.odb,Step-1,Increment      1: Step Time =    1.000,"PART-1-1",           108,           -5.,        -1.875,            0.,NA,NA,"",       1.35414,      -1.31292,  -331.569E-03,   315.561E-06
C:/temp/dataset/test2/10_5.odb,Step-1,Increment      1: Step Time =    1.000,"PART-1-1",           109,            5.,         -3.75,            0.,NA,NA,"",       1.25664,      -1.22715,   270.632E-03,   2.71041E-03
C:/temp/dataset/test2/10_5.odb,Step-1,Increment      1: Step Time =    1.000,"PART-1-1",           110,            3.,         -3.75,            0.,NA,NA,"",       1.22929,      -1.21967,   153.452E-03,   2.89797E-03
C:/temp/dataset/test2/10_5.odb,Step-1,Increment      1: Step Time =    1.000,"PART-1-1",           111,            1.,         -3.75,            0.,NA,NA,"",       1.21277,      -1.21230,   33.4699E-03,   1.87657E-03
C:/temp/dataset/test2/10_5.odb,Step-1,Increment      1: Step Time =    1.000,"PART-1-1",           112,           -1.,         -3.75,            0.,NA,NA,"",       1.20951,      -1.20643,  -86.2469E-03,   1.30404E-03
C:/temp/dataset/test2/10_5.odb,Step-1,Increment      1: Step Time =    1.000,"PART-1-1",           113,           -3.,         -3.75,            0.,NA,NA,"",       1.21962,      -1.20200,  -206.567E-03,   780.391E-06
C:/temp/dataset/test2/10_5.odb,Step-1,Increment      1: Step Time =    1.000,"PART-1-1",           114,           -5.,         -3.75,            0.,NA,NA,"",       1.24244,      -1.19823,  -328.511E-03,   88.6209E-06
C:/temp/dataset/test2/10_5.odb,Step-1,Increment      1: Step Time =    1.000,"PART-1-1",           115,            5.,        -5.625,            0.,NA,NA,"",       1.15112,      -1.11786,   274.714E-03,   5.32154E-03
C:/temp/dataset/test2/10_5.odb,Step-1,Increment      1: Step Time =    1.000,"PART-1-1",           116,            3.,        -5.625,            0.,NA,NA,"",       1.11699,      -1.10644,   153.106E-03,   5.38957E-03
C:/temp/dataset/test2/10_5.odb,Step-1,Increment      1: Step Time =    1.000,"PART-1-1",           117,            1.,        -5.625,            0.,NA,NA,"",       1.09706,      -1.09652,   34.4314E-03,   3.61245E-03
C:/temp/dataset/test2/10_5.odb,Step-1,Increment      1: Step Time =    1.000,"PART-1-1",           118,           -1.,        -5.625,            0.,NA,NA,"",       1.09313,      -1.08994,  -83.4494E-03,   2.59828E-03
C:/temp/dataset/test2/10_5.odb,Step-1,Increment      1: Step Time =    1.000,"PART-1-1",           119,           -3.,        -5.625,            0.,NA,NA,"",       1.10433,      -1.08560,  -202.487E-03,   1.73102E-03
C:/temp/dataset/test2/10_5.odb,Step-1,Increment      1: Step Time =    1.000,"PART-1-1",           120,           -5.,        -5.625,            0.,NA,NA,"",       1.12996,      -1.08233,  -324.623E-03,   664.704E-06
C:/temp/dataset/test2/10_5.odb,Step-1,Increment      1: Step Time =    1.000,"PART-1-1",           121,            5.,          -7.5,            0.,NA,NA,"",       1.03246,  -994.356E-03,   277.886E-03,   3.71252E-03
C:/temp/dataset/test2/10_5.odb,Step-1,Increment      1: Step Time =    1.000,"PART-1-1",           122,            3.,          -7.5,            0.,NA,NA,"",   996.522E-03,  -984.830E-03,   152.202E-03,   5.77614E-03
C:/temp/dataset/test2/10_5.odb,Step-1,Increment      1: Step Time =    1.000,"PART-1-1",           123,            1.,          -7.5,            0.,NA,NA,"",   977.530E-03,  -976.894E-03,   35.2656E-03,   4.87388E-03
C:/temp/dataset/test2/10_5.odb,Step-1,Increment      1: Step Time =    1.000,"PART-1-1",           124,           -1.,          -7.5,            0.,NA,NA,"",   974.580E-03,  -971.277E-03,  -80.1683E-03,   3.85462E-03
C:/temp/dataset/test2/10_5.odb,Step-1,Increment      1: Step Time =    1.000,"PART-1-1",           125,           -3.,          -7.5,            0.,NA,NA,"",   987.701E-03,  -967.803E-03,  -197.259E-03,   2.86217E-03
C:/temp/dataset/test2/10_5.odb,Step-1,Increment      1: Step Time =    1.000,"PART-1-1",           126,           -5.,          -7.5,            0.,NA,NA,"",       1.01686,  -965.560E-03,  -318.912E-03,   2.01980E-03
C:/temp/dataset/test2/10_5.odb,Step-1,Increment      1: Step Time =    1.000,"PART-1-1",           127,            5.,        -9.375,            0.,NA,NA,"",   911.294E-03,  -868.888E-03,   274.754E-03,   4.92999E-03
C:/temp/dataset/test2/10_5.odb,Step-1,Increment      1: Step Time =    1.000,"PART-1-1",           128,            3.,        -9.375,            0.,NA,NA,"",   874.889E-03,  -861.574E-03,   152.059E-03,   4.27691E-03
C:/temp/dataset/test2/10_5.odb,Step-1,Increment      1: Step Time =    1.000,"PART-1-1",           129,            1.,        -9.375,            0.,NA,NA,"",   856.820E-03,  -856.022E-03,   36.9747E-03,   5.11028E-03
C:/temp/dataset/test2/10_5.odb,Step-1,Increment      1: Step Time =    1.000,"PART-1-1",           130,           -1.,        -9.375,            0.,NA,NA,"",   855.322E-03,  -851.957E-03,  -75.7957E-03,   4.66850E-03
C:/temp/dataset/test2/10_5.odb,Step-1,Increment      1: Step Time =    1.000,"PART-1-1",           131,           -3.,        -9.375,            0.,NA,NA,"",   870.839E-03,  -849.784E-03,  -190.336E-03,   3.97502E-03
C:/temp/dataset/test2/10_5.odb,Step-1,Increment      1: Step Time =    1.000,"PART-1-1",           132,           -5.,        -9.375,            0.,NA,NA,"",   903.993E-03,  -849.020E-03,  -310.434E-03,   3.88361E-03
C:/temp/dataset/test2/10_5.odb,Step-1,Increment      1: Step Time =    1.000,"PART-1-1",           133,            5.,        -11.25,            0.,NA,NA,"",   797.621E-03,  -751.017E-03,   268.652E-03,   6.76138E-03
C:/temp/dataset/test2/10_5.odb,Step-1,Increment      1: Step Time =    1.000,"PART-1-1",           134,            3.,        -11.25,            0.,NA,NA,"",   757.909E-03,  -742.795E-03,   150.600E-03,   4.86468E-03
C:/temp/dataset/test2/10_5.odb,Step-1,Increment      1: Step Time =    1.000,"PART-1-1",           135,            1.,        -11.25,            0.,NA,NA,"",   738.392E-03,  -737.368E-03,   38.8736E-03,   4.97604E-03
C:/temp/dataset/test2/10_5.odb,Step-1,Increment      1: Step Time =    1.000,"PART-1-1",           136,           -1.,        -11.25,            0.,NA,NA,"",   737.636E-03,  -734.269E-03,  -70.4014E-03,   5.03391E-03
C:/temp/dataset/test2/10_5.odb,Step-1,Increment      1: Step Time =    1.000,"PART-1-1",           137,           -3.,        -11.25,            0.,NA,NA,"",   755.486E-03,  -733.365E-03,  -181.479E-03,   5.01517E-03
C:/temp/dataset/test2/10_5.odb,Step-1,Increment      1: Step Time =    1.000,"PART-1-1",           138,           -5.,        -11.25,            0.,NA,NA,"",   792.726E-03,  -734.330E-03,  -298.619E-03,   6.02135E-03
C:/temp/dataset/test2/10_5.odb,Step-1,Increment      1: Step Time =    1.000,"PART-1-1",           139,            5.,       -13.125,            0.,NA,NA,"",   688.551E-03,  -637.975E-03,   259.020E-03,   8.65793E-03
C:/temp/dataset/test2/10_5.odb,Step-1,Increment      1: Step Time =    1.000,"PART-1-1",           140,            3.,       -13.125,            0.,NA,NA,"",   645.528E-03,  -628.663E-03,   146.592E-03,   5.93743E-03
C:/temp/dataset/test2/10_5.odb,Step-1,Increment      1: Step Time =    1.000,"PART-1-1",           141,            1.,       -13.125,            0.,NA,NA,"",   624.143E-03,  -622.858E-03,   40.0320E-03,   5.02050E-03
C:/temp/dataset/test2/10_5.odb,Step-1,Increment      1: Step Time =    1.000,"PART-1-1",           142,           -1.,       -13.125,            0.,NA,NA,"",   623.543E-03,  -620.213E-03,  -64.3583E-03,   5.19014E-03
C:/temp/dataset/test2/10_5.odb,Step-1,Increment      1: Step Time =    1.000,"PART-1-1",           143,           -3.,       -13.125,            0.,NA,NA,"",   643.488E-03,  -620.436E-03,  -170.693E-03,   6.04423E-03
C:/temp/dataset/test2/10_5.odb,Step-1,Increment      1: Step Time =    1.000,"PART-1-1",           144,           -5.,       -13.125,            0.,NA,NA,"",   684.614E-03,  -623.243E-03,  -283.310E-03,   8.23283E-03
C:/temp/dataset/test2/10_5.odb,Step-1,Increment      1: Step Time =    1.000,"PART-1-1",           145,            5.,          -15.,            0.,NA,NA,"",   584.642E-03,  -530.448E-03,   245.827E-03,   10.6590E-03
C:/temp/dataset/test2/10_5.odb,Step-1,Increment      1: Step Time =    1.000,"PART-1-1",           146,            3.,          -15.,            0.,NA,NA,"",   538.563E-03,  -520.023E-03,   140.091E-03,   7.09630E-03
C:/temp/dataset/test2/10_5.odb,Step-1,Increment      1: Step Time =    1.000,"PART-1-1",           147,            1.,          -15.,            0.,NA,NA,"",   515.313E-03,  -513.750E-03,   40.1008E-03,   5.19227E-03
C:/temp/dataset/test2/10_5.odb,Step-1,Increment      1: Step Time =    1.000,"PART-1-1",           148,           -1.,          -15.,            0.,NA,NA,"",   514.662E-03,  -511.391E-03,  -57.9339E-03,   5.30871E-03
C:/temp/dataset/test2/10_5.odb,Step-1,Increment      1: Step Time =    1.000,"PART-1-1",           149,           -3.,          -15.,            0.,NA,NA,"",   536.494E-03,  -512.679E-03,  -158.071E-03,   7.11300E-03
C:/temp/dataset/test2/10_5.odb,Step-1,Increment      1: Step Time =    1.000,"PART-1-1",           150,           -5.,          -15.,            0.,NA,NA,"",   581.107E-03,  -517.382E-03,  -264.578E-03,   10.4238E-03
C:/temp/dataset/test2/10_5.odb,Step-1,Increment      1: Step Time =    1.000,"PART-1-1",           151,            5.,       -16.875,            0.,NA,NA,"",   486.682E-03,  -429.530E-03,   228.830E-03,   12.7191E-03
C:/temp/dataset/test2/10_5.odb,Step-1,Increment      1: Step Time =    1.000,"PART-1-1",           152,            3.,       -16.875,            0.,NA,NA,"",   438.077E-03,  -418.016E-03,   131.051E-03,   8.27857E-03
C:/temp/dataset/test2/10_5.odb,Step-1,Increment      1: Step Time =    1.000,"PART-1-1",           153,            1.,       -16.875,            0.,NA,NA,"",   413.141E-03,  -411.297E-03,   38.9851E-03,   5.41318E-03
C:/temp/dataset/test2/10_5.odb,Step-1,Increment      1: Step Time =    1.000,"PART-1-1",           154,           -1.,       -16.875,            0.,NA,NA,"",   412.411E-03,  -409.214E-03,  -51.2498E-03,   5.45061E-03
C:/temp/dataset/test2/10_5.odb,Step-1,Increment      1: Step Time =    1.000,"PART-1-1",           155,           -3.,       -16.875,            0.,NA,NA,"",   435.939E-03,  -411.575E-03,  -143.697E-03,   8.22831E-03
C:/temp/dataset/test2/10_5.odb,Step-1,Increment      1: Step Time =    1.000,"PART-1-1",           156,           -5.,       -16.875,            0.,NA,NA,"",   483.456E-03,  -418.209E-03,  -242.551E-03,   12.5768E-03
C:/temp/dataset/test2/10_5.odb,Step-1,Increment      1: Step Time =    1.000,"PART-1-1",           157,            5.,        -18.75,            0.,NA,NA,"",   395.586E-03,  -336.535E-03,   207.925E-03,   14.8109E-03
C:/temp/dataset/test2/10_5.odb,Step-1,Increment      1: Step Time =    1.000,"PART-1-1",           158,            3.,        -18.75,            0.,NA,NA,"",   345.263E-03,  -323.947E-03,   119.438E-03,   9.48149E-03
C:/temp/dataset/test2/10_5.odb,Step-1,Increment      1: Step Time =    1.000,"PART-1-1",           159,            1.,        -18.75,            0.,NA,NA,"",   318.921E-03,  -316.807E-03,   36.6562E-03,   5.65803E-03
C:/temp/dataset/test2/10_5.odb,Step-1,Increment      1: Step Time =    1.000,"PART-1-1",           160,           -1.,        -18.75,            0.,NA,NA,"",   318.132E-03,  -315.026E-03,  -44.3498E-03,   5.62683E-03
C:/temp/dataset/test2/10_5.odb,Step-1,Increment      1: Step Time =    1.000,"PART-1-1",           161,           -3.,        -18.75,            0.,NA,NA,"",   343.108E-03,  -318.487E-03,  -127.629E-03,   9.38035E-03
C:/temp/dataset/test2/10_5.odb,Step-1,Increment      1: Step Time =    1.000,"PART-1-1",           162,           -5.,        -18.75,            0.,NA,NA,"",   392.699E-03,  -327.077E-03,  -217.332E-03,   14.7012E-03
C:/temp/dataset/test2/10_5.odb,Step-1,Increment      1: Step Time =    1.000,"PART-1-1",           163,            5.,       -20.625,            0.,NA,NA,"",   312.137E-03,  -252.833E-03,   183.044E-03,   16.9171E-03
C:/temp/dataset/test2/10_5.odb,Step-1,Increment      1: Step Time =    1.000,"PART-1-1",           164,            3.,       -20.625,            0.,NA,NA,"",   261.298E-03,  -239.176E-03,   105.219E-03,   10.7001E-03
C:/temp/dataset/test2/10_5.odb,Step-1,Increment      1: Step Time =    1.000,"PART-1-1",           165,            1.,       -20.625,            0.,NA,NA,"",   233.970E-03,  -231.617E-03,   33.0966E-03,   5.93048E-03
C:/temp/dataset/test2/10_5.odb,Step-1,Increment      1: Step Time =    1.000,"PART-1-1",           166,           -1.,       -20.625,            0.,NA,NA,"",   233.144E-03,  -230.150E-03,  -37.2467E-03,   5.84070E-03
C:/temp/dataset/test2/10_5.odb,Step-1,Increment      1: Step Time =    1.000,"PART-1-1",           167,           -3.,       -20.625,            0.,NA,NA,"",   259.185E-03,  -234.733E-03,  -109.897E-03,   10.5552E-03
C:/temp/dataset/test2/10_5.odb,Step-1,Increment      1: Step Time =    1.000,"PART-1-1",           168,           -5.,       -20.625,            0.,NA,NA,"",   309.649E-03,  -245.292E-03,  -188.981E-03,   16.8137E-03
C:/temp/dataset/test2/10_5.odb,Step-1,Increment      1: Step Time =    1.000,"PART-1-1",           169,            5.,         -22.5,            0.,NA,NA,"",   236.867E-03,  -179.804E-03,   154.197E-03,   18.9844E-03
C:/temp/dataset/test2/10_5.odb,Step-1,Increment      1: Step Time =    1.000,"PART-1-1",           170,            3.,         -22.5,            0.,NA,NA,"",   187.227E-03,  -165.069E-03,   88.3530E-03,   11.9524E-03
C:/temp/dataset/test2/10_5.odb,Step-1,Increment      1: Step Time =    1.000,"PART-1-1",           171,            1.,         -22.5,            0.,NA,NA,"",   159.569E-03,  -157.043E-03,   28.2835E-03,   6.24004E-03
C:/temp/dataset/test2/10_5.odb,Step-1,Increment      1: Step Time =    1.000,"PART-1-1",           172,           -1.,         -22.5,            0.,NA,NA,"",   158.725E-03,  -155.879E-03,  -29.9196E-03,   6.09429E-03
C:/temp/dataset/test2/10_5.odb,Step-1,Increment      1: Step Time =    1.000,"PART-1-1",           173,           -3.,         -22.5,            0.,NA,NA,"",   185.214E-03,  -161.607E-03,  -90.4844E-03,   11.7634E-03
C:/temp/dataset/test2/10_5.odb,Step-1,Increment      1: Step Time =    1.000,"PART-1-1",           174,           -5.,         -22.5,            0.,NA,NA,"",   234.814E-03,  -174.121E-03,  -157.542E-03,   18.8841E-03
C:/temp/dataset/test2/10_5.odb,Step-1,Increment      1: Step Time =    1.000,"PART-1-1",           175,            5.,       -24.375,            0.,NA,NA,"",   169.948E-03,  -118.882E-03,   121.447E-03,   21.0650E-03
C:/temp/dataset/test2/10_5.odb,Step-1,Increment      1: Step Time =    1.000,"PART-1-1",           176,            3.,       -24.375,            0.,NA,NA,"",   123.928E-03,  -103.016E-03,   68.8917E-03,   13.2169E-03
C:/temp/dataset/test2/10_5.odb,Step-1,Increment      1: Step Time =    1.000,"PART-1-1",           177,            1.,       -24.375,            0.,NA,NA,"",   97.0304E-03,  -94.4487E-03,   22.2338E-03,   6.69211E-03
C:/temp/dataset/test2/10_5.odb,Step-1,Increment      1: Step Time =    1.000,"PART-1-1",           178,           -1.,       -24.375,            0.,NA,NA,"",   96.1925E-03,  -93.5571E-03,  -22.3623E-03,   6.48492E-03
C:/temp/dataset/test2/10_5.odb,Step-1,Increment      1: Step Time =    1.000,"PART-1-1",           179,           -3.,       -24.375,            0.,NA,NA,"",   122.088E-03,  -100.437E-03,  -69.4122E-03,   12.9825E-03
C:/temp/dataset/test2/10_5.odb,Step-1,Increment      1: Step Time =    1.000,"PART-1-1",           180,           -5.,       -24.375,            0.,NA,NA,"",   168.340E-03,  -114.907E-03,  -123.024E-03,   20.9792E-03
C:/temp/dataset/test2/10_5.odb,Step-1,Increment      1: Step Time =    1.000,"PART-1-1",           181,            5.,        -26.25,            0.,NA,NA,"",   110.811E-03,  -70.8365E-03,   85.2125E-03,   22.5263E-03
C:/temp/dataset/test2/10_5.odb,Step-1,Increment      1: Step Time =    1.000,"PART-1-1",           182,            3.,        -26.25,            0.,NA,NA,"",   71.2550E-03,  -54.0560E-03,   46.4245E-03,   14.9239E-03
C:/temp/dataset/test2/10_5.odb,Step-1,Increment      1: Step Time =    1.000,"PART-1-1",           183,            1.,        -26.25,            0.,NA,NA,"",   47.5360E-03,  -45.1693E-03,   14.8124E-03,   6.91347E-03
C:/temp/dataset/test2/10_5.odb,Step-1,Increment      1: Step Time =    1.000,"PART-1-1",           184,           -1.,        -26.25,            0.,NA,NA,"",   46.7638E-03,  -44.5121E-03,  -14.3361E-03,   6.63243E-03
C:/temp/dataset/test2/10_5.odb,Step-1,Increment      1: Step Time =    1.000,"PART-1-1",           185,           -3.,        -26.25,            0.,NA,NA,"",   69.7205E-03,  -52.2482E-03,  -46.1636E-03,   14.6617E-03
C:/temp/dataset/test2/10_5.odb,Step-1,Increment      1: Step Time =    1.000,"PART-1-1",           186,           -5.,        -26.25,            0.,NA,NA,"",   109.636E-03,  -68.3016E-03,  -85.7611E-03,   22.4554E-03
C:/temp/dataset/test2/10_5.odb,Step-1,Increment      1: Step Time =    1.000,"PART-1-1",           187,            5.,       -28.125,            0.,NA,NA,"",   58.3815E-03,  -35.5630E-03,   46.2998E-03,   26.0602E-03
C:/temp/dataset/test2/10_5.odb,Step-1,Increment      1: Step Time =    1.000,"PART-1-1",           188,            3.,       -28.125,            0.,NA,NA,"",   30.0845E-03,  -19.6078E-03,   22.8170E-03,   16.1425E-03
C:/temp/dataset/test2/10_5.odb,Step-1,Increment      1: Step Time =    1.000,"PART-1-1",           189,            1.,       -28.125,            0.,NA,NA,"",   13.5286E-03,  -11.6443E-03,   6.88724E-03,   6.44533E-03
C:/temp/dataset/test2/10_5.odb,Step-1,Increment      1: Step Time =    1.000,"PART-1-1",           190,           -1.,       -28.125,            0.,NA,NA,"",   13.0006E-03,  -11.2349E-03,  -6.54147E-03,   6.17254E-03
C:/temp/dataset/test2/10_5.odb,Step-1,Increment      1: Step Time =    1.000,"PART-1-1",           191,           -3.,       -28.125,            0.,NA,NA,"",   29.1514E-03,  -18.5104E-03,  -22.5204E-03,   15.8066E-03
C:/temp/dataset/test2/10_5.odb,Step-1,Increment      1: Step Time =    1.000,"PART-1-1",           192,           -5.,       -28.125,            0.,NA,NA,"",   57.5816E-03,  -34.2650E-03,  -46.2768E-03,   26.1242E-03
C:/temp/dataset/test2/10_5.odb,Step-1,Increment      1: Step Time =    1.000,"PART-1-1",           193,            5.,          -30.,            0.,NA,NA,"",            0.,  -7.91495E-39,   14.1540E-39,   33.8358E-03
C:/temp/dataset/test2/10_5.odb,Step-1,Increment      1: Step Time =    1.000,"PART-1-1",           194,            3.,          -30.,            0.,NA,NA,"",            0.,  -9.68329E-39,   23.1188E-39,   10.9907E-03
C:/temp/dataset/test2/10_5.odb,Step-1,Increment      1: Step Time =    1.000,"PART-1-1",           195,            1.,          -30.,            0.,NA,NA,"",            0.,  -1.17575E-39,   7.27828E-39,   4.09441E-03
C:/temp/dataset/test2/10_5.odb,Step-1,Increment      1: Step Time =    1.000,"PART-1-1",           196,           -1.,          -30.,            0.,NA,NA,"",            0.,   3.41786E-39,  -6.77744E-39,   4.01886E-03
C:/temp/dataset/test2/10_5.odb,Step-1,Increment      1: Step Time =    1.000,"PART-1-1",           197,           -3.,          -30.,            0.,NA,NA,"",            0.,  -3.57172E-39,  -21.4015E-39,   10.7497E-03
C:/temp/dataset/test2/10_5.odb,Step-1,Increment      1: Step Time =    1.000,"PART-1-1",           198,           -5.,          -30.,            0.,NA,NA,"",            0.,  -7.66919E-39,  -13.8091E-39,   33.3377E-03
C:/temp/dataset/test2/10_5.odb,Step-1,Increment      1: Step Time =    1.000,"PART-1-1",           199,            4.,           30.,            0.,NA,NA,"",       3.25239,      -3.24876,   153.492E-03,   405.239E-12
C:/temp/dataset/test2/10_5.odb,Step-1,Increment      1: Step Time =    1.000,"PART-1-1",           200,            3.,       29.0625,            0.,NA,NA,"",       3.19194,      -3.19053,   95.0067E-03,   1.05608E-09
C:/temp/dataset/test2/10_5.odb,Step-1,Increment      1: Step Time =    1.000,"PART-1-1",           201,            4.,        28.125,            0.,NA,NA,"",       3.13984,      -3.13592,   156.891E-03,   1.10726E-09
C:/temp/dataset/test2/10_5.odb,Step-1,Increment      1: Step Time =    1.000,"PART-1-1",           202,            5.,       29.0625,            0.,NA,NA,"",       3.20141,      -3.19415,   215.376E-03,   401.776E-12
C:/temp/dataset/test2/10_5.odb,Step-1,Increment      1: Step Time =    1.000,"PART-1-1",           203,            2.,           30.,            0.,NA,NA,"",       3.24531,      -3.24514,   33.1228E-03,   1.73009E-09
C:/temp/dataset/test2/10_5.odb,Step-1,Increment      1: Step Time =    1.000,"PART-1-1",           204,            1.,       29.0625,            0.,NA,NA,"",       3.18700,      -3.18690,  -25.3622E-03,   1.15459E-09
C:/temp/dataset/test2/10_5.odb,Step-1,Increment      1: Step Time =    1.000,"PART-1-1",           205,            2.,        28.125,            0.,NA,NA,"",       3.13250,      -3.13229,   36.5217E-03,   1.00829E-09
C:/temp/dataset/test2/10_5.odb,Step-1,Increment      1: Step Time =    1.000,"PART-1-1",           206,            0.,           30.,            0.,NA,NA,"",       3.24269,      -3.24151,  -87.2461E-03,   2.36450E-09
C:/temp/dataset/test2/10_5.odb,Step-1,Increment      1: Step Time =    1.000,"PART-1-1",           207,           -1.,       29.0625,            0.,NA,NA,"",       3.18661,      -3.18328,  -145.731E-03,   1.15424E-09
C:/temp/dataset/test2/10_5.odb,Step-1,Increment      1: Step Time =    1.000,"PART-1-1",           208,            0.,        28.125,            0.,NA,NA,"",       3.12979,      -3.12867,  -83.8472E-03,   352.013E-12
C:/temp/dataset/test2/10_5.odb,Step-1,Increment      1: Step Time =    1.000,"PART-1-1",           209,           -2.,           30.,            0.,NA,NA,"",       3.24454,      -3.23789,  -207.615E-03,   1.73279E-09
C:/temp/dataset/test2/10_5.odb,Step-1,Increment      1: Step Time =    1.000,"PART-1-1",           210,           -3.,       29.0625,            0.,NA,NA,"",       3.19077,      -3.17965,  -266.100E-03,   1.05414E-09
C:/temp/dataset/test2/10_5.odb,Step-1,Increment      1: Step Time =    1.000,"PART-1-1",           211,           -2.,        28.125,            0.,NA,NA,"",       3.13171,      -3.12504,  -204.216E-03,   1.00387E-09
C:/temp/dataset/test2/10_5.odb,Step-1,Increment      1: Step Time =    1.000,"PART-1-1",           212,           -4.,           30.,            0.,NA,NA,"",       3.25085,      -3.23426,  -327.984E-03,   407.852E-12
C:/temp/dataset/test2/10_5.odb,Step-1,Increment      1: Step Time =    1.000,"PART-1-1",           213,           -5.,       29.0625,            0.,NA,NA,"",       3.19945,      -3.17603,  -386.469E-03,   399.255E-12
C:/temp/dataset/test2/10_5.odb,Step-1,Increment      1: Step Time =    1.000,"PART-1-1",           214,           -4.,        28.125,            0.,NA,NA,"",       3.13825,      -3.12141,  -324.585E-03,   1.10671E-09
C:/temp/dataset/test2/10_5.odb,Step-1,Increment      1: Step Time =    1.000,"PART-1-1",           215,            3.,       27.1875,            0.,NA,NA,"",       3.07925,      -3.07768,   98.4055E-03,   789.089E-12
C:/temp/dataset/test2/10_5.odb,Step-1,Increment      1: Step Time =    1.000,"PART-1-1",           216,            4.,         26.25,            0.,NA,NA,"",       3.02732,      -3.02307,   160.289E-03,   1.16079E-09
C:/temp/dataset/test2/10_5.odb,Step-1,Increment      1: Step Time =    1.000,"PART-1-1",           217,            5.,       27.1875,            0.,NA,NA,"",       3.08906,      -3.08131,   218.774E-03,   1.76510E-09
C:/temp/dataset/test2/10_5.odb,Step-1,Increment      1: Step Time =    1.000,"PART-1-1",           218,            1.,       27.1875,            0.,NA,NA,"",       3.07413,      -3.07406,  -21.9633E-03,   1.58197E-09
C:/temp/dataset/test2/10_5.odb,Step-1,Increment      1: Step Time =    1.000,"PART-1-1",           219,            2.,         26.25,            0.,NA,NA,"",       3.01971,      -3.01945,   39.9205E-03,   2.05709E-09
C:/temp/dataset/test2/10_5.odb,Step-1,Increment      1: Step Time =    1.000,"PART-1-1",           220,           -1.,       27.1875,            0.,NA,NA,"",       3.07373,      -3.07043,  -142.332E-03,   1.58251E-09
C:/temp/dataset/test2/10_5.odb,Step-1,Increment      1: Step Time =    1.000,"PART-1-1",           221,            0.,         26.25,            0.,NA,NA,"",       3.01689,      -3.01582,  -80.4484E-03,   3.17890E-09
C:/temp/dataset/test2/10_5.odb,Step-1,Increment      1: Step Time =    1.000,"PART-1-1",           222,           -3.,       27.1875,            0.,NA,NA,"",       3.07804,      -3.06680,  -262.701E-03,   787.850E-12
C:/temp/dataset/test2/10_5.odb,Step-1,Increment      1: Step Time =    1.000,"PART-1-1",           223,           -2.,         26.25,            0.,NA,NA,"",       3.01888,      -3.01219,  -200.817E-03,   2.05839E-09
C:/temp/dataset/test2/10_5.odb,Step-1,Increment      1: Step Time =    1.000,"PART-1-1",           224,           -5.,       27.1875,            0.,NA,NA,"",       3.08704,      -3.06318,  -383.070E-03,   1.75909E-09
C:/temp/dataset/test2/10_5.odb,Step-1,Increment      1: Step Time =    1.000,"PART-1-1",           225,           -4.,         26.25,            0.,NA,NA,"",       3.02566,      -3.00857,  -321.186E-03,   1.15527E-09
C:/temp/dataset/test2/10_5.odb,Step-1,Increment      1: Step Time =    1.000,"PART-1-1",           226,            3.,       25.3125,            0.,NA,NA,"",       2.96658,      -2.96484,   101.804E-03,   4.46407E-09
C:/temp/dataset/test2/10_5.odb,Step-1,Increment      1: Step Time =    1.000,"PART-1-1",           227,            4.,        24.375,            0.,NA,NA,"",       2.91482,      -2.91023,   163.688E-03,   3.69394E-09
C:/temp/dataset/test2/10_5.odb,Step-1,Increment      1: Step Time =    1.000,"PART-1-1",           228,            5.,       25.3125,            0.,NA,NA,"",       2.97676,      -2.96846,   222.173E-03,   1.95319E-09
C:/temp/dataset/test2/10_5.odb,Step-1,Increment      1: Step Time =    1.000,"PART-1-1",           229,            1.,       25.3125,            0.,NA,NA,"",       2.96127,      -2.96121,  -18.5645E-03,   7.90277E-09
C:/temp/dataset/test2/10_5.odb,Step-1,Increment      1: Step Time =    1.000,"PART-1-1",           230,            2.,        24.375,            0.,NA,NA,"",       2.90692,      -2.90660,   43.3194E-03,   9.80094E-09
C:/temp/dataset/test2/10_5.odb,Step-1,Increment      1: Step Time =    1.000,"PART-1-1",           231,           -1.,       25.3125,            0.,NA,NA,"",       2.96085,      -2.95758,  -138.933E-03,   7.90456E-09
C:/temp/dataset/test2/10_5.odb,Step-1,Increment      1: Step Time =    1.000,"PART-1-1",           232,            0.,        24.375,            0.,NA,NA,"",       2.90400,      -2.90297,  -77.0495E-03,   11.9049E-09
C:/temp/dataset/test2/10_5.odb,Step-1,Increment      1: Step Time =    1.000,"PART-1-1",           233,           -3.,       25.3125,            0.,NA,NA,"",       2.96532,      -2.95396,  -259.302E-03,   4.46790E-09
C:/temp/dataset/test2/10_5.odb,Step-1,Increment      1: Step Time =    1.000,"PART-1-1",           234,           -2.,        24.375,            0.,NA,NA,"",       2.90606,      -2.89935,  -197.418E-03,   9.80348E-09
C:/temp/dataset/test2/10_5.odb,Step-1,Increment      1: Step Time =    1.000,"PART-1-1",           235,           -5.,       25.3125,            0.,NA,NA,"",       2.97466,      -2.95033,  -379.671E-03,   1.94301E-09
C:/temp/dataset/test2/10_5.odb,Step-1,Increment      1: Step Time =    1.000,"PART-1-1",           236,           -4.,        24.375,            0.,NA,NA,"",       2.91311,      -2.89572,  -317.787E-03,   3.69516E-09
C:/temp/dataset/test2/10_5.odb,Step-1,Increment      1: Step Time =    1.000,"PART-1-1",           237,            3.,       23.4375,            0.,NA,NA,"",       2.85393,      -2.85199,   105.203E-03,   18.5736E-09
C:/temp/dataset/test2/10_5.odb,Step-1,Increment      1: Step Time =    1.000,"PART-1-1",           238,            4.,          22.5,            0.,NA,NA,"",       2.80236,      -2.79738,   167.087E-03,   16.1342E-09
C:/temp/dataset/test2/10_5.odb,Step-1,Increment      1: Step Time =    1.000,"PART-1-1",           239,            5.,       23.4375,            0.,NA,NA,"",       2.86451,      -2.85561,   225.572E-03,   4.26475E-09
C:/temp/dataset/test2/10_5.odb,Step-1,Increment      1: Step Time =    1.000,"PART-1-1",           240,            1.,       23.4375,            0.,NA,NA,"",       2.84840,      -2.84836,  -15.1656E-03,   25.0099E-09
C:/temp/dataset/test2/10_5.odb,Step-1,Increment      1: Step Time =    1.000,"PART-1-1",           241,            2.,          22.5,            0.,NA,NA,"",       2.79414,      -2.79375,   46.7182E-03,   30.4156E-09
C:/temp/dataset/test2/10_5.odb,Step-1,Increment      1: Step Time =    1.000,"PART-1-1",           242,           -1.,       23.4375,            0.,NA,NA,"",       2.84797,      -2.84474,  -135.535E-03,   25.0112E-09
C:/temp/dataset/test2/10_5.odb,Step-1,Increment      1: Step Time =    1.000,"PART-1-1",           243,            0.,          22.5,            0.,NA,NA,"",       2.79110,      -2.79013,  -73.6507E-03,   34.4290E-09
C:/temp/dataset/test2/10_5.odb,Step-1,Increment      1: Step Time =    1.000,"PART-1-1",           244,           -3.,       23.4375,            0.,NA,NA,"",       2.85261,      -2.84111,  -255.903E-03,   18.5789E-09
C:/temp/dataset/test2/10_5.odb,Step-1,Increment      1: Step Time =    1.000,"PART-1-1",           245,           -2.,          22.5,            0.,NA,NA,"",       2.79325,      -2.78650,  -194.020E-03,   30.4182E-09
C:/temp/dataset/test2/10_5.odb,Step-1,Increment      1: Step Time =    1.000,"PART-1-1",           246,           -5.,       23.4375,            0.,NA,NA,"",       2.86233,      -2.83749,  -376.272E-03,   4.27982E-09
C:/temp/dataset/test2/10_5.odb,Step-1,Increment      1: Step Time =    1.000,"PART-1-1",           247,           -4.,          22.5,            0.,NA,NA,"",       2.80058,      -2.78288,  -314.388E-03,   16.1424E-09
C:/temp/dataset/test2/10_5.odb,Step-1,Increment      1: Step Time =    1.000,"PART-1-1",           248,            3.,       21.5625,            0.,NA,NA,"",       2.74130,      -2.73914,   108.602E-03,   52.1792E-09
C:/temp/dataset/test2/10_5.odb,Step-1,Increment      1: Step Time =    1.000,"PART-1-1",           249,            4.,        20.625,            0.,NA,NA,"",       2.68994,      -2.68453,   170.486E-03,   49.0820E-09
C:/temp/dataset/test2/10_5.odb,Step-1,Increment      1: Step Time =    1.000,"PART-1-1",           250,            5.,       21.5625,            0.,NA,NA,"",       2.75231,      -2.74277,   228.971E-03,   28.1600E-09
C:/temp/dataset/test2/10_5.odb,Step-1,Increment      1: Step Time =    1.000,"PART-1-1",           251,            1.,       21.5625,            0.,NA,NA,"",       2.73554,      -2.73552,  -11.7668E-03,   63.7880E-09
C:/temp/dataset/test2/10_5.odb,Step-1,Increment      1: Step Time =    1.000,"PART-1-1",           252,            2.,        20.625,            0.,NA,NA,"",       2.68138,      -2.68091,   50.1171E-03,   75.0957E-09
C:/temp/dataset/test2/10_5.odb,Step-1,Increment      1: Step Time =    1.000,"PART-1-1",           253,           -1.,       21.5625,            0.,NA,NA,"",       2.73509,      -2.73189,  -132.136E-03,   63.7849E-09
C:/temp/dataset/test2/10_5.odb,Step-1,Increment      1: Step Time =    1.000,"PART-1-1",           254,            0.,        20.625,            0.,NA,NA,"",       2.67820,      -2.67728,  -70.2519E-03,   82.9101E-09
C:/temp/dataset/test2/10_5.odb,Step-1,Increment      1: Step Time =    1.000,"PART-1-1",           255,           -3.,       21.5625,            0.,NA,NA,"",       2.73993,      -2.72827,  -252.505E-03,   52.1802E-09
C:/temp/dataset/test2/10_5.odb,Step-1,Increment      1: Step Time =    1.000,"PART-1-1",           256,           -2.,        20.625,            0.,NA,NA,"",       2.68044,      -2.67366,  -190.621E-03,   75.0925E-09
C:/temp/dataset/test2/10_5.odb,Step-1,Increment      1: Step Time =    1.000,"PART-1-1",           257,           -5.,       21.5625,            0.,NA,NA,"",       2.75004,      -2.72464,  -372.873E-03,   28.1852E-09
C:/temp/dataset/test2/10_5.odb,Step-1,Increment      1: Step Time =    1.000,"PART-1-1",           258,           -4.,        20.625,            0.,NA,NA,"",       2.68808,      -2.67003,  -310.990E-03,   49.0940E-09
C:/temp/dataset/test2/10_5.odb,Step-1,Increment      1: Step Time =    1.000,"PART-1-1",           259,            3.,       19.6875,            0.,NA,NA,"",       2.62868,      -2.62630,   112.001E-03,   119.028E-09
C:/temp/dataset/test2/10_5.odb,Step-1,Increment      1: Step Time =    1.000,"PART-1-1",           260,            4.,         18.75,            0.,NA,NA,"",       2.57756,      -2.57169,   173.885E-03,   120.847E-09
C:/temp/dataset/test2/10_5.odb,Step-1,Increment      1: Step Time =    1.000,"PART-1-1",           261,            5.,       19.6875,            0.,NA,NA,"",       2.64017,      -2.62992,   232.370E-03,   93.6915E-09
C:/temp/dataset/test2/10_5.odb,Step-1,Increment      1: Step Time =    1.000,"PART-1-1",           262,            1.,       19.6875,            0.,NA,NA,"",       2.62269,      -2.62267,  -8.36806E-03,   136.976E-09
C:/temp/dataset/test2/10_5.odb,Step-1,Increment      1: Step Time =    1.000,"PART-1-1",           263,            2.,         18.75,            0.,NA,NA,"",       2.56862,      -2.56806,   53.5158E-03,   155.002E-09
C:/temp/dataset/test2/10_5.odb,Step-1,Increment      1: Step Time =    1.000,"PART-1-1",           264,           -1.,       19.6875,            0.,NA,NA,"",       2.62221,      -2.61905,  -128.737E-03,   136.947E-09
C:/temp/dataset/test2/10_5.odb,Step-1,Increment      1: Step Time =    1.000,"PART-1-1",           265,            0.,         18.75,            0.,NA,NA,"",       2.56531,      -2.56444,  -66.8532E-03,   168.914E-09
C:/temp/dataset/test2/10_5.odb,Step-1,Increment      1: Step Time =    1.000,"PART-1-1",           266,           -3.,       19.6875,            0.,NA,NA,"",       2.62726,      -2.61542,  -249.106E-03,   118.986E-09
C:/temp/dataset/test2/10_5.odb,Step-1,Increment      1: Step Time =    1.000,"PART-1-1",           267,           -2.,         18.75,            0.,NA,NA,"",       2.56765,      -2.56081,  -187.222E-03,   154.949E-09
C:/temp/dataset/test2/10_5.odb,Step-1,Increment      1: Step Time =    1.000,"PART-1-1",           268,           -5.,       19.6875,            0.,NA,NA,"",       2.63780,      -2.61180,  -369.475E-03,   93.7109E-09
C:/temp/dataset/test2/10_5.odb,Step-1,Increment      1: Step Time =    1.000,"PART-1-1",           269,           -4.,         18.75,            0.,NA,NA,"",       2.57562,      -2.55719,  -307.591E-03,   120.828E-09
C:/temp/dataset/test2/10_5.odb,Step-1,Increment      1: Step Time =    1.000,"PART-1-1",           270,            3.,       17.8125,            0.,NA,NA,"",       2.51610,      -2.51345,   115.400E-03,   225.157E-09
C:/temp/dataset/test2/10_5.odb,Step-1,Increment      1: Step Time =    1.000,"PART-1-1",           271,            4.,        16.875,            0.,NA,NA,"",       2.46522,      -2.45884,   177.284E-03,   250.511E-09
C:/temp/dataset/test2/10_5.odb,Step-1,Increment      1: Step Time =    1.000,"PART-1-1",           272,            5.,       17.8125,            0.,NA,NA,"",       2.52810,      -2.51708,   235.769E-03,   240.411E-09
C:/temp/dataset/test2/10_5.odb,Step-1,Increment      1: Step Time =    1.000,"PART-1-1",           273,            1.,       17.8125,            0.,NA,NA,"",       2.50983,      -2.50983,  -4.96943E-03,   244.693E-09
C:/temp/dataset/test2/10_5.odb,Step-1,Increment      1: Step Time =    1.000,"PART-1-1",           274,            2.,        16.875,            0.,NA,NA,"",       2.45588,      -2.45522,   56.9145E-03,   261.046E-09
C:/temp/dataset/test2/10_5.odb,Step-1,Increment      1: Step Time =    1.000,"PART-1-1",           275,           -1.,       17.8125,            0.,NA,NA,"",       2.50933,      -2.50620,  -125.338E-03,   244.534E-09
C:/temp/dataset/test2/10_5.odb,Step-1,Increment      1: Step Time =    1.000,"PART-1-1",           276,            0.,        16.875,            0.,NA,NA,"",       2.45241,      -2.45159,  -63.4547E-03,   282.911E-09
C:/temp/dataset/test2/10_5.odb,Step-1,Increment      1: Step Time =    1.000,"PART-1-1",           277,           -3.,       17.8125,            0.,NA,NA,"",       2.51461,      -2.50258,  -245.707E-03,   224.876E-09
C:/temp/dataset/test2/10_5.odb,Step-1,Increment      1: Step Time =    1.000,"PART-1-1",           278,           -2.,        16.875,            0.,NA,NA,"",       2.45486,      -2.44796,  -183.823E-03,   260.729E-09
C:/temp/dataset/test2/10_5.odb,Step-1,Increment      1: Step Time =    1.000,"PART-1-1",           279,           -5.,       17.8125,            0.,NA,NA,"",       2.52562,      -2.49895,  -366.075E-03,   240.296E-09
C:/temp/dataset/test2/10_5.odb,Step-1,Increment      1: Step Time =    1.000,"PART-1-1",           280,           -4.,        16.875,            0.,NA,NA,"",       2.46319,      -2.44434,  -304.191E-03,   250.297E-09
C:/temp/dataset/test2/10_5.odb,Step-1,Increment      1: Step Time =    1.000,"PART-1-1",           281,            3.,       15.9375,            0.,NA,NA,"",       2.40354,      -2.40061,   118.799E-03,   328.834E-09
C:/temp/dataset/test2/10_5.odb,Step-1,Increment      1: Step Time =    1.000,"PART-1-1",           282,            4.,           15.,            0.,NA,NA,"",       2.35294,      -2.34600,   180.683E-03,   428.849E-09
C:/temp/dataset/test2/10_5.odb,Step-1,Increment      1: Step Time =    1.000,"PART-1-1",           283,            5.,       15.9375,            0.,NA,NA,"",       2.41610,      -2.40423,   239.169E-03,   511.828E-09
C:/temp/dataset/test2/10_5.odb,Step-1,Increment      1: Step Time =    1.000,"PART-1-1",           284,            1.,       15.9375,            0.,NA,NA,"",       2.39698,      -2.39698,  -1.57097E-03,   334.756E-09
C:/temp/dataset/test2/10_5.odb,Step-1,Increment      1: Step Time =    1.000,"PART-1-1",           285,            2.,           15.,            0.,NA,NA,"",       2.34315,      -2.34237,   60.3131E-03,   312.392E-09
C:/temp/dataset/test2/10_5.odb,Step-1,Increment      1: Step Time =    1.000,"PART-1-1",           286,           -1.,       15.9375,            0.,NA,NA,"",       2.39646,      -2.39335,  -121.940E-03,   334.089E-09
C:/temp/dataset/test2/10_5.odb,Step-1,Increment      1: Step Time =    1.000,"PART-1-1",           287,            0.,           15.,            0.,NA,NA,"",       2.33952,      -2.33874,  -60.0564E-03,   353.470E-09
C:/temp/dataset/test2/10_5.odb,Step-1,Increment      1: Step Time =    1.000,"PART-1-1",           288,           -3.,       15.9375,            0.,NA,NA,"",       2.40198,      -2.38973,  -242.308E-03,   327.522E-09
C:/temp/dataset/test2/10_5.odb,Step-1,Increment      1: Step Time =    1.000,"PART-1-1",           289,           -2.,           15.,            0.,NA,NA,"",       2.34208,      -2.33512,  -180.425E-03,   311.224E-09
C:/temp/dataset/test2/10_5.odb,Step-1,Increment      1: Step Time =    1.000,"PART-1-1",           290,           -5.,       15.9375,            0.,NA,NA,"",       2.41351,      -2.38610,  -362.676E-03,   510.880E-09
C:/temp/dataset/test2/10_5.odb,Step-1,Increment      1: Step Time =    1.000,"PART-1-1",           291,           -4.,           15.,            0.,NA,NA,"",       2.35082,      -2.33149,  -300.792E-03,   427.738E-09
C:/temp/dataset/test2/10_5.odb,Step-1,Increment      1: Step Time =    1.000,"PART-1-1",           292,            3.,       14.0625,            0.,NA,NA,"",       2.29102,      -2.28776,   122.198E-03,   250.437E-09
C:/temp/dataset/test2/10_5.odb,Step-1,Increment      1: Step Time =    1.000,"PART-1-1",           293,            4.,        13.125,            0.,NA,NA,"",       2.24072,      -2.23315,   184.083E-03,   553.154E-09
C:/temp/dataset/test2/10_5.odb,Step-1,Increment      1: Step Time =    1.000,"PART-1-1",           294,            5.,       14.0625,            0.,NA,NA,"",       2.30419,      -2.29139,   242.569E-03,   891.187E-09
C:/temp/dataset/test2/10_5.odb,Step-1,Increment      1: Step Time =    1.000,"PART-1-1",           295,            1.,       14.0625,            0.,NA,NA,"",       2.28414,      -2.28413,   1.82742E-03,   358.463E-09
C:/temp/dataset/test2/10_5.odb,Step-1,Increment      1: Step Time =    1.000,"PART-1-1",           296,            2.,        13.125,            0.,NA,NA,"",       2.23043,      -2.22952,   63.7118E-03,   341.057E-09
C:/temp/dataset/test2/10_5.odb,Step-1,Increment      1: Step Time =    1.000,"PART-1-1",           297,           -1.,       14.0625,            0.,NA,NA,"",       2.28359,      -2.28051,  -118.541E-03,   357.117E-09
C:/temp/dataset/test2/10_5.odb,Step-1,Increment      1: Step Time =    1.000,"PART-1-1",           298,            0.,        13.125,            0.,NA,NA,"",       2.22662,      -2.22590,  -56.6579E-03,   534.841E-09
C:/temp/dataset/test2/10_5.odb,Step-1,Increment      1: Step Time =    1.000,"PART-1-1",           299,           -3.,       14.0625,            0.,NA,NA,"",       2.28938,      -2.27688,  -238.909E-03,   247.051E-09
C:/temp/dataset/test2/10_5.odb,Step-1,Increment      1: Step Time =    1.000,"PART-1-1",           300,           -2.,        13.125,            0.,NA,NA,"",       2.22931,      -2.22227,  -177.026E-03,   342.273E-09
C:/temp/dataset/test2/10_5.odb,Step-1,Increment      1: Step Time =    1.000,"PART-1-1",           301,           -5.,       14.0625,            0.,NA,NA,"",       2.30147,      -2.27326,  -359.276E-03,   886.352E-09
C:/temp/dataset/test2/10_5.odb,Step-1,Increment      1: Step Time =    1.000,"PART-1-1",           302,           -4.,        13.125,            0.,NA,NA,"",       2.23849,      -2.21865,  -297.393E-03,   549.958E-09
C:/temp/dataset/test2/10_5.odb,Step-1,Increment      1: Step Time =    1.000,"PART-1-1",           303,            3.,       12.1875,            0.,NA,NA,"",       2.17854,      -2.17491,   125.597E-03,   760.576E-09
C:/temp/dataset/test2/10_5.odb,Step-1,Increment      1: Step Time =    1.000,"PART-1-1",           304,            4.,         11.25,            0.,NA,NA,"",       2.12857,      -2.12030,   187.483E-03,   737.404E-09
C:/temp/dataset/test2/10_5.odb,Step-1,Increment      1: Step Time =    1.000,"PART-1-1",           305,            5.,       12.1875,            0.,NA,NA,"",       2.19238,      -2.17854,   245.970E-03,   1.09856E-06
C:/temp/dataset/test2/10_5.odb,Step-1,Increment      1: Step Time =    1.000,"PART-1-1",           306,            1.,       12.1875,            0.,NA,NA,"",       2.17129,      -2.17129,   5.22633E-03,   1.47125E-06
C:/temp/dataset/test2/10_5.odb,Step-1,Increment      1: Step Time =    1.000,"PART-1-1",           307,            2.,         11.25,            0.,NA,NA,"",       2.11774,      -2.11667,   67.1111E-03,   1.93610E-06
C:/temp/dataset/test2/10_5.odb,Step-1,Increment      1: Step Time =    1.000,"PART-1-1",           308,           -1.,       12.1875,            0.,NA,NA,"",       2.17072,      -2.16766,  -115.143E-03,   1.47167E-06
C:/temp/dataset/test2/10_5.odb,Step-1,Increment      1: Step Time =    1.000,"PART-1-1",           309,            0.,         11.25,            0.,NA,NA,"",       2.11372,      -2.11305,  -53.2580E-03,   2.35586E-06
C:/temp/dataset/test2/10_5.odb,Step-1,Increment      1: Step Time =    1.000,"PART-1-1",           310,           -3.,       12.1875,            0.,NA,NA,"",       2.17682,      -2.16404,  -235.510E-03,   769.800E-09
C:/temp/dataset/test2/10_5.odb,Step-1,Increment      1: Step Time =    1.000,"PART-1-1",           311,           -2.,         11.25,            0.,NA,NA,"",       2.11657,      -2.10943,  -173.627E-03,   1.94376E-06
C:/temp/dataset/test2/10_5.odb,Step-1,Increment      1: Step Time =    1.000,"PART-1-1",           312,           -5.,       12.1875,            0.,NA,NA,"",       2.18953,      -2.16042,  -355.875E-03,   1.08218E-06
C:/temp/dataset/test2/10_5.odb,Step-1,Increment      1: Step Time =    1.000,"PART-1-1",           313,           -4.,         11.25,            0.,NA,NA,"",       2.12623,      -2.10581,  -293.993E-03,   748.598E-09
C:/temp/dataset/test2/10_5.odb,Step-1,Increment      1: Step Time =    1.000,"PART-1-1",           314,            3.,       10.3125,            0.,NA,NA,"",       2.06609,      -2.06206,   128.996E-03,   3.95673E-06
C:/temp/dataset/test2/10_5.odb,Step-1,Increment      1: Step Time =    1.000,"PART-1-1",           315,            4.,         9.375,            0.,NA,NA,"",       2.01650,      -2.00744,   190.881E-03,   3.25323E-06
C:/temp/dataset/test2/10_5.odb,Step-1,Increment      1: Step Time =    1.000,"PART-1-1",           316,            5.,       10.3125,            0.,NA,NA,"",       2.08068,      -2.06568,   249.371E-03,   237.550E-09
C:/temp/dataset/test2/10_5.odb,Step-1,Increment      1: Step Time =    1.000,"PART-1-1",           317,            1.,       10.3125,            0.,NA,NA,"",       2.05846,      -2.05844,   8.62770E-03,   5.51303E-06
C:/temp/dataset/test2/10_5.odb,Step-1,Increment      1: Step Time =    1.000,"PART-1-1",           318,            2.,         9.375,            0.,NA,NA,"",       2.00506,      -2.00382,   70.5130E-03,   6.88961E-06
C:/temp/dataset/test2/10_5.odb,Step-1,Increment      1: Step Time =    1.000,"PART-1-1",           319,           -1.,       10.3125,            0.,NA,NA,"",       2.05786,      -2.05482,  -111.742E-03,   5.49801E-06
C:/temp/dataset/test2/10_5.odb,Step-1,Increment      1: Step Time =    1.000,"PART-1-1",           320,            0.,         9.375,            0.,NA,NA,"",       2.00083,      -2.00021,  -49.8532E-03,   7.83800E-06
C:/temp/dataset/test2/10_5.odb,Step-1,Increment      1: Step Time =    1.000,"PART-1-1",           321,           -3.,       10.3125,            0.,NA,NA,"",       2.06429,      -2.05120,  -232.112E-03,   3.94815E-06
C:/temp/dataset/test2/10_5.odb,Step-1,Increment      1: Step Time =    1.000,"PART-1-1",           322,           -2.,         9.375,            0.,NA,NA,"",       2.00384,      -1.99659,  -170.226E-03,   6.87992E-06
C:/temp/dataset/test2/10_5.odb,Step-1,Increment      1: Step Time =    1.000,"PART-1-1",           323,           -5.,       10.3125,            0.,NA,NA,"",       2.07769,      -2.04758,  -352.475E-03,   231.289E-09
C:/temp/dataset/test2/10_5.odb,Step-1,Increment      1: Step Time =    1.000,"PART-1-1",           324,           -4.,         9.375,            0.,NA,NA,"",       2.01405,      -1.99297,  -290.596E-03,   3.26161E-06
C:/temp/dataset/test2/10_5.odb,Step-1,Increment      1: Step Time =    1.000,"PART-1-1",           325,            3.,        8.4375,            0.,NA,NA,"",       1.95369,      -1.94920,   132.396E-03,   12.3843E-06
C:/temp/dataset/test2/10_5.odb,Step-1,Increment      1: Step Time =    1.000,"PART-1-1",           326,            4.,           7.5,            0.,NA,NA,"",       1.90451,      -1.89457,   194.275E-03,   11.1924E-06
C:/temp/dataset/test2/10_5.odb,Step-1,Increment      1: Step Time =    1.000,"PART-1-1",           327,            5.,        8.4375,            0.,NA,NA,"",       1.96911,      -1.95282,   252.770E-03,   5.09724E-06
C:/temp/dataset/test2/10_5.odb,Step-1,Increment      1: Step Time =    1.000,"PART-1-1",           328,            1.,        8.4375,            0.,NA,NA,"",       1.94562,      -1.94559,   12.0364E-03,   15.4921E-06
C:/temp/dataset/test2/10_5.odb,Step-1,Increment      1: Step Time =    1.000,"PART-1-1",           329,            2.,           7.5,            0.,NA,NA,"",       1.89240,      -1.89096,   73.9217E-03,   18.6434E-06
C:/temp/dataset/test2/10_5.odb,Step-1,Increment      1: Step Time =    1.000,"PART-1-1",           330,           -1.,        8.4375,            0.,NA,NA,"",       1.94500,      -1.94198,  -108.334E-03,   15.3739E-06
C:/temp/dataset/test2/10_5.odb,Step-1,Increment      1: Step Time =    1.000,"PART-1-1",           331,            0.,           7.5,            0.,NA,NA,"",       1.88793,      -1.88736,  -46.4354E-03,   20.5597E-06
C:/temp/dataset/test2/10_5.odb,Step-1,Increment      1: Step Time =    1.000,"PART-1-1",           332,           -3.,        8.4375,            0.,NA,NA,"",       1.95182,      -1.93837,  -228.714E-03,   12.2093E-06
C:/temp/dataset/test2/10_5.odb,Step-1,Increment      1: Step Time =    1.000,"PART-1-1",           333,           -2.,           7.5,            0.,NA,NA,"",       1.89114,      -1.88377,  -166.820E-03,   18.3974E-06
C:/temp/dataset/test2/10_5.odb,Step-1,Increment      1: Step Time =    1.000,"PART-1-1",           334,           -5.,        8.4375,            0.,NA,NA,"",       1.96598,      -1.93475,  -349.078E-03,   5.09823E-06
C:/temp/dataset/test2/10_5.odb,Step-1,Increment      1: Step Time =    1.000,"PART-1-1",           335,           -4.,           7.5,            0.,NA,NA,"",       1.90196,      -1.88015,  -287.206E-03,   11.0831E-06
C:/temp/dataset/test2/10_5.odb,Step-1,Increment      1: Step Time =    1.000,"PART-1-1",           336,            3.,        6.5625,            0.,NA,NA,"",       1.84133,      -1.83632,   135.796E-03,   31.0900E-06
C:/temp/dataset/test2/10_5.odb,Step-1,Increment      1: Step Time =    1.000,"PART-1-1",           337,            4.,         5.625,            0.,NA,NA,"",       1.79262,      -1.78169,   197.653E-03,   30.3930E-06
C:/temp/dataset/test2/10_5.odb,Step-1,Increment      1: Step Time =    1.000,"PART-1-1",           338,            5.,        6.5625,            0.,NA,NA,"",       1.85770,      -1.83995,   256.156E-03,   20.8461E-06
C:/temp/dataset/test2/10_5.odb,Step-1,Increment      1: Step Time =    1.000,"PART-1-1",           339,            1.,        6.5625,            0.,NA,NA,"",       1.83279,      -1.83273,   15.4628E-03,   36.1015E-06
C:/temp/dataset/test2/10_5.odb,Step-1,Increment      1: Step Time =    1.000,"PART-1-1",           340,            2.,         5.625,            0.,NA,NA,"",       1.77976,      -1.77808,   77.3458E-03,   41.8799E-06
C:/temp/dataset/test2/10_5.odb,Step-1,Increment      1: Step Time =    1.000,"PART-1-1",           341,           -1.,        6.5625,            0.,NA,NA,"",       1.83216,      -1.82915,  -104.910E-03,   35.4039E-06
C:/temp/dataset/test2/10_5.odb,Step-1,Increment      1: Step Time =    1.000,"PART-1-1",           342,            0.,         5.625,            0.,NA,NA,"",       1.77504,      -1.77452,  -42.9890E-03,   45.1403E-06
C:/temp/dataset/test2/10_5.odb,Step-1,Increment      1: Step Time =    1.000,"PART-1-1",           343,           -3.,        6.5625,            0.,NA,NA,"",       1.83941,      -1.82556,  -225.318E-03,   29.7201E-06
C:/temp/dataset/test2/10_5.odb,Step-1,Increment      1: Step Time =    1.000,"PART-1-1",           344,           -2.,         5.625,            0.,NA,NA,"",       1.77848,      -1.77096,  -163.402E-03,   40.5343E-06
C:/temp/dataset/test2/10_5.odb,Step-1,Increment      1: Step Time =    1.000,"PART-1-1",           345,           -5.,        6.5625,            0.,NA,NA,"",       1.85443,      -1.82192,  -345.695E-03,   20.3688E-06
C:/temp/dataset/test2/10_5.odb,Step-1,Increment      1: Step Time =    1.000,"PART-1-1",           346,           -4.,         5.625,            0.,NA,NA,"",       1.78999,      -1.76734,  -283.832E-03,   29.2271E-06
C:/temp/dataset/test2/10_5.odb,Step-1,Increment      1: Step Time =    1.000,"PART-1-1",           347,            3.,        4.6875,            0.,NA,NA,"",       1.72904,      -1.72343,   139.196E-03,   65.0857E-06
C:/temp/dataset/test2/10_5.odb,Step-1,Increment      1: Step Time =    1.000,"PART-1-1",           348,            4.,          3.75,            0.,NA,NA,"",       1.68085,      -1.66879,   200.996E-03,   69.4966E-06
C:/temp/dataset/test2/10_5.odb,Step-1,Increment      1: Step Time =    1.000,"PART-1-1",           349,            5.,        4.6875,            0.,NA,NA,"",       1.74645,      -1.72707,   259.502E-03,   61.0953E-06
C:/temp/dataset/test2/10_5.odb,Step-1,Increment      1: Step Time =    1.000,"PART-1-1",           350,            1.,        4.6875,            0.,NA,NA,"",       1.71997,      -1.71987,   18.9253E-03,   70.8895E-06
C:/temp/dataset/test2/10_5.odb,Step-1,Increment      1: Step Time =    1.000,"PART-1-1",           351,            2.,          3.75,            0.,NA,NA,"",       1.66716,      -1.66520,   80.8005E-03,   79.8936E-06
C:/temp/dataset/test2/10_5.odb,Step-1,Increment      1: Step Time =    1.000,"PART-1-1",           352,           -1.,        4.6875,            0.,NA,NA,"",       1.71933,      -1.71634,  -101.454E-03,   67.9838E-06
C:/temp/dataset/test2/10_5.odb,Step-1,Increment      1: Step Time =    1.000,"PART-1-1",           353,            0.,          3.75,            0.,NA,NA,"",       1.66216,      -1.66169,  -39.4918E-03,   82.8430E-06
C:/temp/dataset/test2/10_5.odb,Step-1,Increment      1: Step Time =    1.000,"PART-1-1",           354,           -3.,        4.6875,            0.,NA,NA,"",       1.72707,      -1.71276,  -221.926E-03,   59.5375E-06
C:/temp/dataset/test2/10_5.odb,Step-1,Increment      1: Step Time =    1.000,"PART-1-1",           355,           -2.,          3.75,            0.,NA,NA,"",       1.66585,      -1.65815,  -159.962E-03,   73.4139E-06
C:/temp/dataset/test2/10_5.odb,Step-1,Increment      1: Step Time =    1.000,"PART-1-1",           356,           -5.,        4.6875,            0.,NA,NA,"",       1.74306,      -1.70911,  -342.351E-03,   56.2906E-06
C:/temp/dataset/test2/10_5.odb,Step-1,Increment      1: Step Time =    1.000,"PART-1-1",           357,           -4.,          3.75,            0.,NA,NA,"",       1.67814,      -1.65453,  -280.492E-03,   63.6929E-06
C:/temp/dataset/test2/10_5.odb,Step-1,Increment      1: Step Time =    1.000,"PART-1-1",           358,            3.,        2.8125,            0.,NA,NA,"",       1.61684,      -1.61054,   142.598E-03,   116.268E-06
C:/temp/dataset/test2/10_5.odb,Step-1,Increment      1: Step Time =    1.000,"PART-1-1",           359,            4.,         1.875,            0.,NA,NA,"",       1.56928,      -1.55593,   204.262E-03,   135.631E-06
C:/temp/dataset/test2/10_5.odb,Step-1,Increment      1: Step Time =    1.000,"PART-1-1",           360,            5.,        2.8125,            0.,NA,NA,"",       1.63545,      -1.61420,   262.753E-03,   144.617E-06
C:/temp/dataset/test2/10_5.odb,Step-1,Increment      1: Step Time =    1.000,"PART-1-1",           361,            1.,        2.8125,            0.,NA,NA,"",       1.60718,      -1.60702,   22.4478E-03,   112.667E-06
C:/temp/dataset/test2/10_5.odb,Step-1,Increment      1: Step Time =    1.000,"PART-1-1",           362,            2.,         1.875,            0.,NA,NA,"",       1.55465,      -1.55236,   84.3049E-03,   118.294E-06
C:/temp/dataset/test2/10_5.odb,Step-1,Increment      1: Step Time =    1.000,"PART-1-1",           363,           -1.,        2.8125,            0.,NA,NA,"",       1.60651,      -1.60352,  -97.9491E-03,   103.570E-06
C:/temp/dataset/test2/10_5.odb,Step-1,Increment      1: Step Time =    1.000,"PART-1-1",           364,            0.,         1.875,            0.,NA,NA,"",       1.54929,      -1.54887,  -35.9295E-03,   118.817E-06
C:/temp/dataset/test2/10_5.odb,Step-1,Increment      1: Step Time =    1.000,"PART-1-1",           365,           -3.,        2.8125,            0.,NA,NA,"",       1.61480,      -1.59995,  -218.541E-03,   94.0417E-06
C:/temp/dataset/test2/10_5.odb,Step-1,Increment      1: Step Time =    1.000,"PART-1-1",           366,           -2.,         1.875,            0.,NA,NA,"",       1.55323,      -1.54532,  -156.498E-03,   100.048E-06
C:/temp/dataset/test2/10_5.odb,Step-1,Increment      1: Step Time =    1.000,"PART-1-1",           367,           -5.,        2.8125,            0.,NA,NA,"",       1.63187,      -1.59625,  -339.090E-03,   124.520E-06
C:/temp/dataset/test2/10_5.odb,Step-1,Increment      1: Step Time =    1.000,"PART-1-1",           368,           -4.,         1.875,            0.,NA,NA,"",       1.56639,      -1.54166,  -277.211E-03,   114.539E-06
C:/temp/dataset/test2/10_5.odb,Step-1,Increment      1: Step Time =    1.000,"PART-1-1",           369,            3.,     937.5E-03,            0.,NA,NA,"",       1.50487,      -1.49777,   146.003E-03,   140.936E-06
C:/temp/dataset/test2/10_5.odb,Step-1,Increment      1: Step Time =    1.000,"PART-1-1",           370,            4.,            0.,            0.,NA,NA,"",       1.45817,      -1.44334,   207.432E-03,   215.246E-06
C:/temp/dataset/test2/10_5.odb,Step-1,Increment      1: Step Time =    1.000,"PART-1-1",           371,            5.,     937.5E-03,            0.,NA,NA,"",       1.52481,      -1.50147,   265.776E-03,   313.060E-06
C:/temp/dataset/test2/10_5.odb,Step-1,Increment      1: Step Time =    1.000,"PART-1-1",           372,            1.,     937.5E-03,            0.,NA,NA,"",       1.49447,      -1.49425,   26.0334E-03,   132.545E-06
C:/temp/dataset/test2/10_5.odb,Step-1,Increment      1: Step Time =    1.000,"PART-1-1",           373,            2.,            0.,            0.,NA,NA,"",       1.44241,      -1.43973,   87.8609E-03,   121.133E-06
C:/temp/dataset/test2/10_5.odb,Step-1,Increment      1: Step Time =    1.000,"PART-1-1",           374,           -1.,     937.5E-03,            0.,NA,NA,"",       1.49366,      -1.49067,  -94.4056E-03,   107.181E-06
C:/temp/dataset/test2/10_5.odb,Step-1,Increment      1: Step Time =    1.000,"PART-1-1",           375,            0.,            0.,            0.,NA,NA,"",       1.43643,      -1.43606,  -32.3561E-03,   137.566E-06
C:/temp/dataset/test2/10_5.odb,Step-1,Increment      1: Step Time =    1.000,"PART-1-1",           376,           -3.,     937.5E-03,            0.,NA,NA,"",       1.50251,      -1.48702,  -215.170E-03,   95.3911E-06
C:/temp/dataset/test2/10_5.odb,Step-1,Increment      1: Step Time =    1.000,"PART-1-1",           377,           -2.,            0.,            0.,NA,NA,"",       1.44047,      -1.43231,  -153.030E-03,   82.6636E-06
C:/temp/dataset/test2/10_5.odb,Step-1,Increment      1: Step Time =    1.000,"PART-1-1",           378,           -5.,     937.5E-03,            0.,NA,NA,"",       1.52083,      -1.48326,  -335.972E-03,   221.825E-06
C:/temp/dataset/test2/10_5.odb,Step-1,Increment      1: Step Time =    1.000,"PART-1-1",           379,           -4.,            0.,            0.,NA,NA,"",       1.45460,      -1.42856,  -273.996E-03,   160.219E-06
C:/temp/dataset/test2/10_5.odb,Step-1,Increment      1: Step Time =    1.000,"PART-1-1",           380,            3.,    -937.5E-03,            0.,NA,NA,"",       1.39350,      -1.38547,   149.456E-03,   175.417E-06
C:/temp/dataset/test2/10_5.odb,Step-1,Increment      1: Step Time =    1.000,"PART-1-1",           381,            4.,        -1.875,            0.,NA,NA,"",       1.34822,      -1.33170,   210.415E-03,   379.777E-06
C:/temp/dataset/test2/10_5.odb,Step-1,Increment      1: Step Time =    1.000,"PART-1-1",           382,            5.,    -937.5E-03,            0.,NA,NA,"",       1.41495,      -1.38926,   268.408E-03,   514.334E-06
C:/temp/dataset/test2/10_5.odb,Step-1,Increment      1: Step Time =    1.000,"PART-1-1",           383,            1.,    -937.5E-03,            0.,NA,NA,"",       1.38195,      -1.38163,   29.5675E-03,   309.167E-06
C:/temp/dataset/test2/10_5.odb,Step-1,Increment      1: Step Time =    1.000,"PART-1-1",           384,            2.,        -1.875,            0.,NA,NA,"",       1.33078,      -1.32765,   91.2770E-03,   546.079E-06
C:/temp/dataset/test2/10_5.odb,Step-1,Increment      1: Step Time =    1.000,"PART-1-1",           385,           -1.,    -937.5E-03,            0.,NA,NA,"",       1.38061,      -1.37761,  -90.9240E-03,   228.618E-06
C:/temp/dataset/test2/10_5.odb,Step-1,Increment      1: Step Time =    1.000,"PART-1-1",           386,            0.,        -1.875,            0.,NA,NA,"",       1.32340,      -1.32308,  -29.0218E-03,   473.061E-06
C:/temp/dataset/test2/10_5.odb,Step-1,Increment      1: Step Time =    1.000,"PART-1-1",           387,           -3.,    -937.5E-03,            0.,NA,NA,"",       1.38996,      -1.37373,  -211.807E-03,   76.9891E-06
C:/temp/dataset/test2/10_5.odb,Step-1,Increment      1: Step Time =    1.000,"PART-1-1",           388,           -2.,        -1.875,            0.,NA,NA,"",       1.32724,      -1.31878,  -149.617E-03,   301.076E-06
C:/temp/dataset/test2/10_5.odb,Step-1,Increment      1: Step Time =    1.000,"PART-1-1",           389,           -5.,    -937.5E-03,            0.,NA,NA,"",       1.40977,      -1.36987,  -333.023E-03,   294.741E-06
C:/temp/dataset/test2/10_5.odb,Step-1,Increment      1: Step Time =    1.000,"PART-1-1",           390,           -4.,        -1.875,            0.,NA,NA,"",       1.34247,      -1.31487,  -270.777E-03,   173.365E-06
C:/temp/dataset/test2/10_5.odb,Step-1,Increment      1: Step Time =    1.000,"PART-1-1",           391,            3.,       -2.8125,            0.,NA,NA,"",       1.28387,      -1.27476,   152.642E-03,   1.47358E-03
C:/temp/dataset/test2/10_5.odb,Step-1,Increment      1: Step Time =    1.000,"PART-1-1",           392,            4.,         -3.75,            0.,NA,NA,"",       1.24211,      -1.22360,   213.659E-03,   2.89366E-03
C:/temp/dataset/test2/10_5.odb,Step-1,Increment      1: Step Time =    1.000,"PART-1-1",           393,            5.,       -2.8125,            0.,NA,NA,"",       1.30693,      -1.27871,   270.148E-03,   671.003E-06
C:/temp/dataset/test2/10_5.odb,Step-1,Increment      1: Step Time =    1.000,"PART-1-1",           394,            1.,       -2.8125,            0.,NA,NA,"",       1.26944,      -1.26902,   32.4934E-03,   1.16913E-03
C:/temp/dataset/test2/10_5.odb,Step-1,Increment      1: Step Time =    1.000,"PART-1-1",           395,            2.,         -3.75,            0.,NA,NA,"",       1.21944,      -1.21586,   93.4534E-03,   2.14779E-03
C:/temp/dataset/test2/10_5.odb,Step-1,Increment      1: Step Time =    1.000,"PART-1-1",           396,           -1.,       -2.8125,            0.,NA,NA,"",       1.26689,      -1.26385,  -87.7151E-03,   836.106E-06
C:/temp/dataset/test2/10_5.odb,Step-1,Increment      1: Step Time =    1.000,"PART-1-1",           397,            0.,         -3.75,            0.,NA,NA,"",       1.20945,      -1.20916,  -26.3887E-03,   1.50577E-03
C:/temp/dataset/test2/10_5.odb,Step-1,Increment      1: Step Time =    1.000,"PART-1-1",           398,           -3.,       -2.8125,            0.,NA,NA,"",       1.27670,      -1.25958,  -208.379E-03,   475.649E-06
C:/temp/dataset/test2/10_5.odb,Step-1,Increment      1: Step Time =    1.000,"PART-1-1",           399,           -2.,         -3.75,            0.,NA,NA,"",       1.21292,      -1.20407,  -146.267E-03,   1.00002E-03
C:/temp/dataset/test2/10_5.odb,Step-1,Increment      1: Step Time =    1.000,"PART-1-1",           400,           -5.,       -2.8125,            0.,NA,NA,"",       1.29838,      -1.25572,  -330.103E-03,   200.241E-06
C:/temp/dataset/test2/10_5.odb,Step-1,Increment      1: Step Time =    1.000,"PART-1-1",           401,           -4.,         -3.75,            0.,NA,NA,"",       1.22952,      -1.20011,  -267.301E-03,   381.731E-06
C:/temp/dataset/test2/10_5.odb,Step-1,Increment      1: Step Time =    1.000,"PART-1-1",           402,            3.,       -4.6875,            0.,NA,NA,"",       1.17390,      -1.16380,   153.623E-03,   3.98037E-03
C:/temp/dataset/test2/10_5.odb,Step-1,Increment      1: Step Time =    1.000,"PART-1-1",           403,            4.,        -5.625,            0.,NA,NA,"",       1.13251,      -1.11223,   213.399E-03,   5.04424E-03
C:/temp/dataset/test2/10_5.odb,Step-1,Increment      1: Step Time =    1.000,"PART-1-1",           404,            5.,       -4.6875,            0.,NA,NA,"",       1.20622,      -1.17501,   272.578E-03,   4.12039E-03
C:/temp/dataset/test2/10_5.odb,Step-1,Increment      1: Step Time =    1.000,"PART-1-1",           405,            1.,       -4.6875,            0.,NA,NA,"",       1.15540,      -1.15490,   34.0655E-03,   2.68446E-03
C:/temp/dataset/test2/10_5.odb,Step-1,Increment      1: Step Time =    1.000,"PART-1-1",           406,            2.,        -5.625,            0.,NA,NA,"",       1.10496,      -1.10099,   93.5471E-03,   4.27095E-03
C:/temp/dataset/test2/10_5.odb,Step-1,Increment      1: Step Time =    1.000,"PART-1-1",           407,           -1.,       -4.6875,            0.,NA,NA,"",       1.15160,      -1.14847,  -84.8610E-03,   1.92931E-03
C:/temp/dataset/test2/10_5.odb,Step-1,Increment      1: Step Time =    1.000,"PART-1-1",           408,            0.,        -5.625,            0.,NA,NA,"",       1.09315,      -1.09287,  -24.4859E-03,   3.01583E-03
C:/temp/dataset/test2/10_5.odb,Step-1,Increment      1: Step Time =    1.000,"PART-1-1",           409,           -3.,       -4.6875,            0.,NA,NA,"",       1.16216,      -1.14401,  -204.633E-03,   1.24774E-03
C:/temp/dataset/test2/10_5.odb,Step-1,Increment      1: Step Time =    1.000,"PART-1-1",           410,           -2.,        -5.625,            0.,NA,NA,"",       1.09687,      -1.08755,  -142.701E-03,   2.08586E-03
C:/temp/dataset/test2/10_5.odb,Step-1,Increment      1: Step Time =    1.000,"PART-1-1",           411,           -5.,       -4.6875,            0.,NA,NA,"",       1.18631,      -1.14043,  -326.735E-03,   290.333E-06
C:/temp/dataset/test2/10_5.odb,Step-1,Increment      1: Step Time =    1.000,"PART-1-1",           412,           -4.,        -5.625,            0.,NA,NA,"",       1.11540,      -1.08394,  -263.049E-03,   1.05475E-03
C:/temp/dataset/test2/10_5.odb,Step-1,Increment      1: Step Time =    1.000,"PART-1-1",           413,            3.,       -6.5625,            0.,NA,NA,"",       1.05732,      -1.04627,   152.494E-03,   5.56579E-03
C:/temp/dataset/test2/10_5.odb,Step-1,Increment      1: Step Time =    1.000,"PART-1-1",           414,            4.,          -7.5,            0.,NA,NA,"",       1.01197,  -989.421E-03,   212.418E-03,   4.80285E-03
C:/temp/dataset/test2/10_5.odb,Step-1,Increment      1: Step Time =    1.000,"PART-1-1",           415,            5.,       -6.5625,            0.,NA,NA,"",       1.09408,      -1.05855,   276.535E-03,   4.33724E-03
C:/temp/dataset/test2/10_5.odb,Step-1,Increment      1: Step Time =    1.000,"PART-1-1",           416,            1.,       -6.5625,            0.,NA,NA,"",       1.03768,      -1.03710,   34.7702E-03,   4.19157E-03
C:/temp/dataset/test2/10_5.odb,Step-1,Increment      1: Step Time =    1.000,"PART-1-1",           417,            2.,          -7.5,            0.,NA,NA,"",   985.036E-03,  -980.611E-03,   93.2620E-03,   5.06940E-03
C:/temp/dataset/test2/10_5.odb,Step-1,Increment      1: Step Time =    1.000,"PART-1-1",           418,           -1.,       -6.5625,            0.,NA,NA,"",       1.03405,      -1.03080,  -81.9130E-03,   3.21627E-03
C:/temp/dataset/test2/10_5.odb,Step-1,Increment      1: Step Time =    1.000,"PART-1-1",           419,            0.,          -7.5,            0.,NA,NA,"",   974.044E-03,  -973.786E-03,  -22.4175E-03,   4.27456E-03
C:/temp/dataset/test2/10_5.odb,Step-1,Increment      1: Step Time =    1.000,"PART-1-1",           420,           -3.,       -6.5625,            0.,NA,NA,"",       1.04613,      -1.02682,  -200.052E-03,   2.28991E-03
C:/temp/dataset/test2/10_5.odb,Step-1,Increment      1: Step Time =    1.000,"PART-1-1",           421,           -2.,          -7.5,            0.,NA,NA,"",   979.132E-03,  -969.313E-03,  -138.323E-03,   3.24195E-03
C:/temp/dataset/test2/10_5.odb,Step-1,Increment      1: Step Time =    1.000,"PART-1-1",           422,           -5.,       -6.5625,            0.,NA,NA,"",       1.07345,      -1.02400,  -322.055E-03,   1.33680E-03
C:/temp/dataset/test2/10_5.odb,Step-1,Increment      1: Step Time =    1.000,"PART-1-1",           423,           -4.,          -7.5,            0.,NA,NA,"",       1.00028,  -966.621E-03,  -257.309E-03,   2.16138E-03
C:/temp/dataset/test2/10_5.odb,Step-1,Increment      1: Step Time =    1.000,"PART-1-1",           424,            3.,       -8.4375,            0.,NA,NA,"",   935.445E-03,  -922.999E-03,   152.087E-03,   4.89673E-03
C:/temp/dataset/test2/10_5.odb,Step-1,Increment      1: Step Time =    1.000,"PART-1-1",           425,            4.,        -9.375,            0.,NA,NA,"",   890.657E-03,  -864.964E-03,   212.386E-03,   3.83228E-03
C:/temp/dataset/test2/10_5.odb,Step-1,Increment      1: Step Time =    1.000,"PART-1-1",           426,            5.,       -8.4375,            0.,NA,NA,"",   970.054E-03,  -929.679E-03,   276.948E-03,   3.74264E-03
C:/temp/dataset/test2/10_5.odb,Step-1,Increment      1: Step Time =    1.000,"PART-1-1",           427,            1.,       -8.4375,            0.,NA,NA,"",   917.081E-03,  -916.373E-03,   36.0232E-03,   4.95919E-03
C:/temp/dataset/test2/10_5.odb,Step-1,Increment      1: Step Time =    1.000,"PART-1-1",           428,            2.,        -9.375,            0.,NA,NA,"",   863.795E-03,  -858.675E-03,   93.9102E-03,   4.75007E-03
C:/temp/dataset/test2/10_5.odb,Step-1,Increment      1: Step Time =    1.000,"PART-1-1",           429,           -1.,       -8.4375,            0.,NA,NA,"",   914.905E-03,  -911.564E-03,  -78.1215E-03,   4.25577E-03
C:/temp/dataset/test2/10_5.odb,Step-1,Increment      1: Step Time =    1.000,"PART-1-1",           430,            0.,        -9.375,            0.,NA,NA,"",   853.987E-03,  -853.766E-03,  -19.4286E-03,   4.79669E-03
C:/temp/dataset/test2/10_5.odb,Step-1,Increment      1: Step Time =    1.000,"PART-1-1",           431,           -3.,       -8.4375,            0.,NA,NA,"",   929.199E-03,  -908.716E-03,  -194.025E-03,   3.40887E-03
C:/temp/dataset/test2/10_5.odb,Step-1,Increment      1: Step Time =    1.000,"PART-1-1",           432,           -2.,        -9.375,            0.,NA,NA,"",   860.929E-03,  -850.654E-03,  -132.611E-03,   4.15986E-03
C:/temp/dataset/test2/10_5.odb,Step-1,Increment      1: Step Time =    1.000,"PART-1-1",           433,           -5.,       -8.4375,            0.,NA,NA,"",   960.321E-03,  -907.170E-03,  -315.054E-03,   2.95045E-03
C:/temp/dataset/test2/10_5.odb,Step-1,Increment      1: Step Time =    1.000,"PART-1-1",           434,           -4.,        -9.375,            0.,NA,NA,"",   885.155E-03,  -849.286E-03,  -249.424E-03,   3.58812E-03
C:/temp/dataset/test2/10_5.odb,Step-1,Increment      1: Step Time =    1.000,"PART-1-1",           435,            3.,      -10.3125,            0.,NA,NA,"",   815.847E-03,  -801.631E-03,   151.639E-03,   4.47994E-03
C:/temp/dataset/test2/10_5.odb,Step-1,Increment      1: Step Time =    1.000,"PART-1-1",           436,            4.,        -11.25,            0.,NA,NA,"",   775.114E-03,  -746.504E-03,   208.644E-03,   5.47929E-03
C:/temp/dataset/test2/10_5.odb,Step-1,Increment      1: Step Time =    1.000,"PART-1-1",           437,            5.,      -10.3125,            0.,NA,NA,"",   853.854E-03,  -809.321E-03,   272.151E-03,   5.80047E-03
C:/temp/dataset/test2/10_5.odb,Step-1,Increment      1: Step Time =    1.000,"PART-1-1",           438,            1.,      -10.3125,            0.,NA,NA,"",   797.168E-03,  -796.263E-03,   37.9624E-03,   5.02948E-03
C:/temp/dataset/test2/10_5.odb,Step-1,Increment      1: Step Time =    1.000,"PART-1-1",           439,            2.,        -11.25,            0.,NA,NA,"",   745.732E-03,  -739.764E-03,   94.1595E-03,   4.67094E-03
C:/temp/dataset/test2/10_5.odb,Step-1,Increment      1: Step Time =    1.000,"PART-1-1",           440,           -1.,      -10.3125,            0.,NA,NA,"",   796.154E-03,  -792.782E-03,  -73.2053E-03,   4.84336E-03
C:/temp/dataset/test2/10_5.odb,Step-1,Increment      1: Step Time =    1.000,"PART-1-1",           441,            0.,        -11.25,            0.,NA,NA,"",   735.711E-03,  -735.541E-03,  -15.8040E-03,   4.85147E-03
C:/temp/dataset/test2/10_5.odb,Step-1,Increment      1: Step Time =    1.000,"PART-1-1",           442,           -3.,      -10.3125,            0.,NA,NA,"",   812.858E-03,  -791.257E-03,  -186.148E-03,   4.48265E-03
C:/temp/dataset/test2/10_5.odb,Step-1,Increment      1: Step Time =    1.000,"PART-1-1",           443,           -2.,        -11.25,            0.,NA,NA,"",   744.211E-03,  -733.561E-03,  -125.453E-03,   4.80768E-03
C:/temp/dataset/test2/10_5.odb,Step-1,Increment      1: Step Time =    1.000,"PART-1-1",           444,           -5.,      -10.3125,            0.,NA,NA,"",   848.060E-03,  -791.334E-03,  -304.952E-03,   4.95473E-03
C:/temp/dataset/test2/10_5.odb,Step-1,Increment      1: Step Time =    1.000,"PART-1-1",           445,           -4.,        -11.25,            0.,NA,NA,"",   771.596E-03,  -733.648E-03,  -239.002E-03,   5.18768E-03
C:/temp/dataset/test2/10_5.odb,Step-1,Increment      1: Step Time =    1.000,"PART-1-1",           446,            3.,      -12.1875,            0.,NA,NA,"",   701.099E-03,  -685.102E-03,   148.913E-03,   5.38956E-03
C:/temp/dataset/test2/10_5.odb,Step-1,Increment      1: Step Time =    1.000,"PART-1-1",           447,            4.,       -13.125,            0.,NA,NA,"",   664.286E-03,  -632.868E-03,   201.879E-03,   7.05005E-03
C:/temp/dataset/test2/10_5.odb,Step-1,Increment      1: Step Time =    1.000,"PART-1-1",           448,            5.,      -12.1875,            0.,NA,NA,"",   742.483E-03,  -693.859E-03,   264.276E-03,   7.70710E-03
C:/temp/dataset/test2/10_5.odb,Step-1,Increment      1: Step Time =    1.000,"PART-1-1",           449,            1.,      -12.1875,            0.,NA,NA,"",   680.665E-03,  -679.513E-03,   39.5769E-03,   4.99106E-03
C:/temp/dataset/test2/10_5.odb,Step-1,Increment      1: Step Time =    1.000,"PART-1-1",           450,            2.,       -13.125,            0.,NA,NA,"",   632.191E-03,  -625.342E-03,   92.8002E-03,   5.14751E-03
C:/temp/dataset/test2/10_5.odb,Step-1,Increment      1: Step Time =    1.000,"PART-1-1",           451,           -1.,      -12.1875,            0.,NA,NA,"",   680.036E-03,  -676.683E-03,  -67.4424E-03,   5.10441E-03
C:/temp/dataset/test2/10_5.odb,Step-1,Increment      1: Step Time =    1.000,"PART-1-1",           452,            0.,       -13.125,            0.,NA,NA,"",   621.279E-03,  -621.159E-03,  -12.1827E-03,   4.82692E-03
C:/temp/dataset/test2/10_5.odb,Step-1,Increment      1: Step Time =    1.000,"PART-1-1",           453,           -3.,      -12.1875,            0.,NA,NA,"",   698.961E-03,  -676.356E-03,  -176.319E-03,   5.51862E-03
C:/temp/dataset/test2/10_5.odb,Step-1,Increment      1: Step Time =    1.000,"PART-1-1",           454,           -2.,       -13.125,            0.,NA,NA,"",   630.931E-03,  -619.985E-03,  -117.016E-03,   5.33788E-03
C:/temp/dataset/test2/10_5.odb,Step-1,Increment      1: Step Time =    1.000,"PART-1-1",           455,           -5.,      -12.1875,            0.,NA,NA,"",   738.179E-03,  -678.231E-03,  -291.396E-03,   7.12956E-03
C:/temp/dataset/test2/10_5.odb,Step-1,Increment      1: Step Time =    1.000,"PART-1-1",           456,           -4.,       -13.125,            0.,NA,NA,"",   661.325E-03,  -621.535E-03,  -225.931E-03,   6.85158E-03
C:/temp/dataset/test2/10_5.odb,Step-1,Increment      1: Step Time =    1.000,"PART-1-1",           457,            3.,      -14.0625,            0.,NA,NA,"",   591.306E-03,  -573.590E-03,   143.657E-03,   6.51119E-03
C:/temp/dataset/test2/10_5.odb,Step-1,Increment      1: Step Time =    1.000,"PART-1-1",           458,            4.,          -15.,            0.,NA,NA,"",   558.737E-03,  -524.708E-03,   192.011E-03,   8.66947E-03
C:/temp/dataset/test2/10_5.odb,Step-1,Increment      1: Step Time =    1.000,"PART-1-1",           459,            5.,      -14.0625,            0.,NA,NA,"",   635.912E-03,  -583.465E-03,   252.888E-03,   9.65684E-03
C:/temp/dataset/test2/10_5.odb,Step-1,Increment      1: Step Time =    1.000,"PART-1-1",           460,            1.,      -14.0625,            0.,NA,NA,"",   568.974E-03,  -567.551E-03,   40.2123E-03,   5.10171E-03
C:/temp/dataset/test2/10_5.odb,Step-1,Increment      1: Step Time =    1.000,"PART-1-1",           461,            2.,          -15.,            0.,NA,NA,"",   524.098E-03,  -516.381E-03,   89.6097E-03,   5.77741E-03
C:/temp/dataset/test2/10_5.odb,Step-1,Increment      1: Step Time =    1.000,"PART-1-1",           462,           -1.,      -14.0625,            0.,NA,NA,"",   568.361E-03,  -565.058E-03,  -61.1834E-03,   5.24457E-03
C:/temp/dataset/test2/10_5.odb,Step-1,Increment      1: Step Time =    1.000,"PART-1-1",           463,            0.,          -15.,            0.,NA,NA,"",   512.176E-03,  -512.099E-03,  -8.91179E-03,   4.81145E-03
C:/temp/dataset/test2/10_5.odb,Step-1,Increment      1: Step Time =    1.000,"PART-1-1",           464,           -3.,      -14.0625,            0.,NA,NA,"",   589.273E-03,  -565.816E-03,  -164.605E-03,   6.57078E-03
C:/temp/dataset/test2/10_5.odb,Step-1,Increment      1: Step Time =    1.000,"PART-1-1",           465,           -2.,          -15.,            0.,NA,NA,"",   522.763E-03,  -511.595E-03,  -107.476E-03,   5.87518E-03
C:/temp/dataset/test2/10_5.odb,Step-1,Increment      1: Step Time =    1.000,"PART-1-1",           466,           -5.,      -14.0625,            0.,NA,NA,"",   632.201E-03,  -569.564E-03,  -274.363E-03,   9.32958E-03
C:/temp/dataset/test2/10_5.odb,Step-1,Increment      1: Step Time =    1.000,"PART-1-1",           467,           -4.,          -15.,            0.,NA,NA,"",   555.910E-03,  -514.615E-03,  -210.254E-03,   8.52702E-03
C:/temp/dataset/test2/10_5.odb,Step-1,Increment      1: Step Time =    1.000,"PART-1-1",           468,            3.,      -15.9375,            0.,NA,NA,"",   487.436E-03,  -468.111E-03,   135.890E-03,   7.68244E-03
C:/temp/dataset/test2/10_5.odb,Step-1,Increment      1: Step Time =    1.000,"PART-1-1",           469,            4.,       -16.875,            0.,NA,NA,"",   459.464E-03,  -423.167E-03,   178.988E-03,   10.3167E-03
C:/temp/dataset/test2/10_5.odb,Step-1,Increment      1: Step Time =    1.000,"PART-1-1",           470,            5.,      -15.9375,            0.,NA,NA,"",   534.858E-03,  -479.082E-03,   237.811E-03,   11.6892E-03
C:/temp/dataset/test2/10_5.odb,Step-1,Increment      1: Step Time =    1.000,"PART-1-1",           471,            1.,      -15.9375,            0.,NA,NA,"",   463.314E-03,  -461.611E-03,   39.6944E-03,   5.29839E-03
C:/temp/dataset/test2/10_5.odb,Step-1,Increment      1: Step Time =    1.000,"PART-1-1",           472,            2.,       -16.875,            0.,NA,NA,"",   422.609E-03,  -414.066E-03,   84.5445E-03,   6.46601E-03
C:/temp/dataset/test2/10_5.odb,Step-1,Increment      1: Step Time =    1.000,"PART-1-1",           473,           -1.,      -15.9375,            0.,NA,NA,"",   462.623E-03,  -459.388E-03,  -54.6200E-03,   5.37671E-03
C:/temp/dataset/test2/10_5.odb,Step-1,Increment      1: Step Time =    1.000,"PART-1-1",           474,            0.,       -16.875,            0.,NA,NA,"",   409.734E-03,  -409.688E-03,  -6.11128E-03,   4.80755E-03
C:/temp/dataset/test2/10_5.odb,Step-1,Increment      1: Step Time =    1.000,"PART-1-1",           475,           -3.,      -15.9375,            0.,NA,NA,"",   485.329E-03,  -461.209E-03,  -151.099E-03,   7.66591E-03
C:/temp/dataset/test2/10_5.odb,Step-1,Increment      1: Step Time =    1.000,"PART-1-1",           476,           -2.,       -16.875,            0.,NA,NA,"",   421.159E-03,  -409.851E-03,  -96.9372E-03,   6.46508E-03
C:/temp/dataset/test2/10_5.odb,Step-1,Increment      1: Step Time =    1.000,"PART-1-1",           477,           -5.,      -15.9375,            0.,NA,NA,"",   531.480E-03,  -466.873E-03,  -253.969E-03,   11.5006E-03
C:/temp/dataset/test2/10_5.odb,Step-1,Increment      1: Step Time =    1.000,"PART-1-1",           478,           -4.,       -16.875,            0.,NA,NA,"",   456.711E-03,  -414.366E-03,  -192.057E-03,   10.1980E-03
C:/temp/dataset/test2/10_5.odb,Step-1,Increment      1: Step Time =    1.000,"PART-1-1",           479,            3.,      -17.8125,            0.,NA,NA,"",   390.637E-03,  -369.905E-03,   125.569E-03,   8.87629E-03
C:/temp/dataset/test2/10_5.odb,Step-1,Increment      1: Step Time =    1.000,"PART-1-1",           480,            4.,        -18.75,            0.,NA,NA,"",   367.541E-03,  -329.555E-03,   162.725E-03,   11.9855E-03
C:/temp/dataset/test2/10_5.odb,Step-1,Increment      1: Step Time =    1.000,"PART-1-1",           481,            5.,      -17.8125,            0.,NA,NA,"",   440.222E-03,  -381.957E-03,   218.871E-03,   13.7649E-03
C:/temp/dataset/test2/10_5.odb,Step-1,Increment      1: Step Time =    1.000,"PART-1-1",           482,            1.,      -17.8125,            0.,NA,NA,"",   364.955E-03,  -362.974E-03,   37.9742E-03,   5.53152E-03
C:/temp/dataset/test2/10_5.odb,Step-1,Increment      1: Step Time =    1.000,"PART-1-1",           483,            2.,        -18.75,            0.,NA,NA,"",   328.979E-03,  -319.702E-03,   77.5781E-03,   7.18553E-03
C:/temp/dataset/test2/10_5.odb,Step-1,Increment      1: Step Time =    1.000,"PART-1-1",           484,           -1.,      -17.8125,            0.,NA,NA,"",   364.192E-03,  -361.039E-03,  -47.8249E-03,   5.53680E-03
C:/temp/dataset/test2/10_5.odb,Step-1,Increment      1: Step Time =    1.000,"PART-1-1",           485,            0.,        -18.75,            0.,NA,NA,"",   315.278E-03,  -315.255E-03,  -3.81776E-03,   4.80904E-03
C:/temp/dataset/test2/10_5.odb,Step-1,Increment      1: Step Time =    1.000,"PART-1-1",           486,           -3.,      -17.8125,            0.,NA,NA,"",   388.482E-03,  -363.946E-03,  -135.872E-03,   8.80182E-03
C:/temp/dataset/test2/10_5.odb,Step-1,Increment      1: Step Time =    1.000,"PART-1-1",           487,           -2.,        -18.75,            0.,NA,NA,"",   327.454E-03,  -316.109E-03,  -85.4474E-03,   7.10775E-03
C:/temp/dataset/test2/10_5.odb,Step-1,Increment      1: Step Time =    1.000,"PART-1-1",           488,           -5.,      -17.8125,            0.,NA,NA,"",   437.160E-03,  -371.556E-03,  -230.336E-03,   13.6387E-03
C:/temp/dataset/test2/10_5.odb,Step-1,Increment      1: Step Time =    1.000,"PART-1-1",           489,           -4.,        -18.75,            0.,NA,NA,"",   364.914E-03,  -322.147E-03,  -171.415E-03,   11.8635E-03
C:/temp/dataset/test2/10_5.odb,Step-1,Increment      1: Step Time =    1.000,"PART-1-1",           490,            3.,      -19.6875,            0.,NA,NA,"",   302.104E-03,  -280.313E-03,   112.656E-03,   10.0878E-03
C:/temp/dataset/test2/10_5.odb,Step-1,Increment      1: Step Time =    1.000,"PART-1-1",           491,            4.,       -20.625,            0.,NA,NA,"",   283.973E-03,  -245.237E-03,   143.177E-03,   13.6661E-03
C:/temp/dataset/test2/10_5.odb,Step-1,Increment      1: Step Time =    1.000,"PART-1-1",           492,            5.,      -19.6875,            0.,NA,NA,"",   352.864E-03,  -293.435E-03,   195.983E-03,   15.8632E-03
C:/temp/dataset/test2/10_5.odb,Step-1,Increment      1: Step Time =    1.000,"PART-1-1",           493,            1.,      -19.6875,            0.,NA,NA,"",   275.205E-03,  -272.967E-03,   35.0324E-03,   5.79041E-03
C:/temp/dataset/test2/10_5.odb,Step-1,Increment      1: Step Time =    1.000,"PART-1-1",           494,            2.,       -20.625,            0.,NA,NA,"",   244.480E-03,  -234.633E-03,   68.6855E-03,   7.93262E-03
C:/temp/dataset/test2/10_5.odb,Step-1,Increment      1: Step Time =    1.000,"PART-1-1",           495,           -1.,      -19.6875,            0.,NA,NA,"",   274.396E-03,  -271.342E-03,  -40.8240E-03,   5.73240E-03
C:/temp/dataset/test2/10_5.odb,Step-1,Increment      1: Step Time =    1.000,"PART-1-1",           496,            0.,       -20.625,            0.,NA,NA,"",   230.129E-03,  -230.120E-03,  -2.04353E-03,   4.81725E-03
C:/temp/dataset/test2/10_5.odb,Step-1,Increment      1: Step Time =    1.000,"PART-1-1",           497,           -3.,      -19.6875,            0.,NA,NA,"",   299.963E-03,  -275.362E-03,  -118.970E-03,   9.96649E-03
C:/temp/dataset/test2/10_5.odb,Step-1,Increment      1: Step Time =    1.000,"PART-1-1",           498,           -2.,       -20.625,            0.,NA,NA,"",   242.924E-03,  -231.688E-03,  -73.0240E-03,   7.79229E-03
C:/temp/dataset/test2/10_5.odb,Step-1,Increment      1: Step Time =    1.000,"PART-1-1",           499,           -5.,      -19.6875,            0.,NA,NA,"",   350.171E-03,  -284.936E-03,  -203.546E-03,   15.7565E-03
C:/temp/dataset/test2/10_5.odb,Step-1,Increment      1: Step Time =    1.000,"PART-1-1",           500,           -4.,       -20.625,            0.,NA,NA,"",   281.537E-03,  -239.265E-03,  -148.375E-03,   13.5280E-03
C:/temp/dataset/test2/10_5.odb,Step-1,Increment      1: Step Time =    1.000,"PART-1-1",           501,            3.,      -21.5625,            0.,NA,NA,"",   222.965E-03,  -200.702E-03,   97.1194E-03,   11.3247E-03
C:/temp/dataset/test2/10_5.odb,Step-1,Increment      1: Step Time =    1.000,"PART-1-1",           502,            4.,         -22.5,            0.,NA,NA,"",   209.599E-03,  -171.613E-03,   120.335E-03,   15.3377E-03
C:/temp/dataset/test2/10_5.odb,Step-1,Increment      1: Step Time =    1.000,"PART-1-1",           503,            5.,      -21.5625,            0.,NA,NA,"",   273.457E-03,  -214.897E-03,   169.109E-03,   17.9492E-03
C:/temp/dataset/test2/10_5.odb,Step-1,Increment      1: Step Time =    1.000,"PART-1-1",           504,            1.,      -21.5625,            0.,NA,NA,"",   195.371E-03,  -192.920E-03,   30.8482E-03,   6.08236E-03
C:/temp/dataset/test2/10_5.odb,Step-1,Increment      1: Step Time =    1.000,"PART-1-1",           505,            2.,         -22.5,            0.,NA,NA,"",   170.338E-03,  -160.214E-03,   57.8476E-03,   8.72742E-03
C:/temp/dataset/test2/10_5.odb,Step-1,Increment      1: Step Time =    1.000,"PART-1-1",           506,           -1.,      -21.5625,            0.,NA,NA,"",   194.534E-03,  -191.608E-03,  -33.6126E-03,   5.96727E-03
C:/temp/dataset/test2/10_5.odb,Step-1,Increment      1: Step Time =    1.000,"PART-1-1",           507,            0.,         -22.5,            0.,NA,NA,"",   155.611E-03,  -155.609E-03,  -790.133E-06,   4.85414E-03
C:/temp/dataset/test2/10_5.odb,Step-1,Increment      1: Step Time =    1.000,"PART-1-1",           508,           -3.,      -21.5625,            0.,NA,NA,"",   220.895E-03,  -196.758E-03,  -100.404E-03,   11.1601E-03
C:/temp/dataset/test2/10_5.odb,Step-1,Increment      1: Step Time =    1.000,"PART-1-1",           509,           -2.,         -22.5,            0.,NA,NA,"",   168.789E-03,  -157.894E-03,  -59.6597E-03,   8.52805E-03
C:/temp/dataset/test2/10_5.odb,Step-1,Increment      1: Step Time =    1.000,"PART-1-1",           510,           -5.,      -21.5625,            0.,NA,NA,"",   271.184E-03,  -208.301E-03,  -173.642E-03,   17.8469E-03
C:/temp/dataset/test2/10_5.odb,Step-1,Increment      1: Step Time =    1.000,"PART-1-1",           511,           -4.,         -22.5,            0.,NA,NA,"",   207.407E-03,  -167.029E-03,  -122.959E-03,   15.1793E-03
C:/temp/dataset/test2/10_5.odb,Step-1,Increment      1: Step Time =    1.000,"PART-1-1",           512,            3.,      -23.4375,            0.,NA,NA,"",   154.205E-03,  -132.460E-03,   78.9529E-03,   12.5769E-03
C:/temp/dataset/test2/10_5.odb,Step-1,Increment      1: Step Time =    1.000,"PART-1-1",           513,            4.,       -24.375,            0.,NA,NA,"",   144.827E-03,  -109.995E-03,   94.2123E-03,   17.0304E-03
C:/temp/dataset/test2/10_5.odb,Step-1,Increment      1: Step Time =    1.000,"PART-1-1",           514,            5.,      -23.4375,            0.,NA,NA,"",   202.383E-03,  -147.748E-03,   138.310E-03,   20.0253E-03
C:/temp/dataset/test2/10_5.odb,Step-1,Increment      1: Step Time =    1.000,"PART-1-1",           515,            1.,      -23.4375,            0.,NA,NA,"",   126.744E-03,  -124.168E-03,   25.4235E-03,   6.44579E-03
C:/temp/dataset/test2/10_5.odb,Step-1,Increment      1: Step Time =    1.000,"PART-1-1",           516,            2.,       -24.375,            0.,NA,NA,"",   107.622E-03,  -97.7744E-03,   44.9738E-03,   9.56460E-03
C:/temp/dataset/test2/10_5.odb,Step-1,Increment      1: Step Time =    1.000,"PART-1-1",           517,           -1.,      -23.4375,            0.,NA,NA,"",   125.898E-03,  -123.145E-03,  -26.1837E-03,   6.27177E-03
C:/temp/dataset/test2/10_5.odb,Step-1,Increment      1: Step Time =    1.000,"PART-1-1",           518,            0.,       -24.375,            0.,NA,NA,"",   93.0084E-03,  -93.0084E-03,  -39.8074E-06,   4.93312E-03
C:/temp/dataset/test2/10_5.odb,Step-1,Increment      1: Step Time =    1.000,"PART-1-1",           519,           -3.,      -23.4375,            0.,NA,NA,"",   152.267E-03,  -129.456E-03,  -80.1655E-03,   12.3670E-03
C:/temp/dataset/test2/10_5.odb,Step-1,Increment      1: Step Time =    1.000,"PART-1-1",           520,           -2.,       -24.375,            0.,NA,NA,"",   106.138E-03,  -96.0173E-03,  -45.2327E-03,   9.30316E-03
C:/temp/dataset/test2/10_5.odb,Step-1,Increment      1: Step Time =    1.000,"PART-1-1",           521,           -5.,      -23.4375,            0.,NA,NA,"",   200.550E-03,  -142.940E-03,  -140.672E-03,   19.9330E-03
C:/temp/dataset/test2/10_5.odb,Step-1,Increment      1: Step Time =    1.000,"PART-1-1",           522,           -4.,       -24.375,            0.,NA,NA,"",   142.942E-03,  -106.669E-03,  -95.1537E-03,   16.8581E-03
C:/temp/dataset/test2/10_5.odb,Step-1,Increment      1: Step Time =    1.000,"PART-1-1",           523,            3.,      -25.3125,            0.,NA,NA,"",   96.2848E-03,  -76.8320E-03,   58.0311E-03,   13.9873E-03
C:/temp/dataset/test2/10_5.odb,Step-1,Increment      1: Step Time =    1.000,"PART-1-1",           524,            4.,        -26.25,            0.,NA,NA,"",   89.6875E-03,  -61.7835E-03,   65.0126E-03,   18.6497E-03
C:/temp/dataset/test2/10_5.odb,Step-1,Increment      1: Step Time =    1.000,"PART-1-1",           525,            5.,      -25.3125,            0.,NA,NA,"",   139.418E-03,  -93.2074E-03,   103.682E-03,   21.8052E-03
C:/temp/dataset/test2/10_5.odb,Step-1,Increment      1: Step Time =    1.000,"PART-1-1",           526,            1.,      -25.3125,            0.,NA,NA,"",   70.5252E-03,  -68.0122E-03,   18.6585E-03,   6.81748E-03
C:/temp/dataset/test2/10_5.odb,Step-1,Increment      1: Step Time =    1.000,"PART-1-1",           527,            2.,        -26.25,            0.,NA,NA,"",   57.2477E-03,  -48.6297E-03,   30.2069E-03,   10.5565E-03
C:/temp/dataset/test2/10_5.odb,Step-1,Increment      1: Step Time =    1.000,"PART-1-1",           528,           -1.,      -25.3125,            0.,NA,NA,"",   69.7094E-03,  -67.2438E-03,  -18.3760E-03,   6.58001E-03
C:/temp/dataset/test2/10_5.odb,Step-1,Increment      1: Step Time =    1.000,"PART-1-1",           529,            0.,        -26.25,            0.,NA,NA,"",   43.7882E-03,  -43.7875E-03,   245.468E-06,   4.97324E-03
C:/temp/dataset/test2/10_5.odb,Step-1,Increment      1: Step Time =    1.000,"PART-1-1",           530,           -3.,      -25.3125,            0.,NA,NA,"",   94.5740E-03,  -74.6495E-03,  -58.0663E-03,   13.7391E-03
C:/temp/dataset/test2/10_5.odb,Step-1,Increment      1: Step Time =    1.000,"PART-1-1",           531,           -2.,        -26.25,            0.,NA,NA,"",   55.9520E-03,  -47.3510E-03,  -29.8079E-03,   10.2472E-03
C:/temp/dataset/test2/10_5.odb,Step-1,Increment      1: Step Time =    1.000,"PART-1-1",           532,           -5.,      -25.3125,            0.,NA,NA,"",   138.033E-03,  -89.9941E-03,  -104.662E-03,   21.7185E-03
C:/temp/dataset/test2/10_5.odb,Step-1,Increment      1: Step Time =    1.000,"PART-1-1",           533,           -4.,        -26.25,            0.,NA,NA,"",   88.1908E-03,  -59.5461E-03,  -65.0529E-03,   18.4667E-03
C:/temp/dataset/test2/10_5.odb,Step-1,Increment      1: Step Time =    1.000,"PART-1-1",           534,            3.,      -27.1875,            0.,NA,NA,"",   49.0933E-03,  -34.7879E-03,   34.6403E-03,   15.0775E-03
C:/temp/dataset/test2/10_5.odb,Step-1,Increment      1: Step Time =    1.000,"PART-1-1",           535,            4.,       -28.125,            0.,NA,NA,"",   40.9665E-03,  -25.4780E-03,   32.0800E-03,   20.5916E-03
C:/temp/dataset/test2/10_5.odb,Step-1,Increment      1: Step Time =    1.000,"PART-1-1",           536,            5.,      -27.1875,            0.,NA,NA,"",   84.5621E-03,  -52.3769E-03,   66.3883E-03,   23.9713E-03
C:/temp/dataset/test2/10_5.odb,Step-1,Increment      1: Step Time =    1.000,"PART-1-1",           537,            1.,      -27.1875,            0.,NA,NA,"",   28.4468E-03,  -26.2714E-03,   10.9101E-03,   6.78411E-03
C:/temp/dataset/test2/10_5.odb,Step-1,Increment      1: Step Time =    1.000,"PART-1-1",           538,            2.,       -28.125,            0.,NA,NA,"",   20.0848E-03,  -14.4459E-03,   13.9539E-03,   10.9110E-03
C:/temp/dataset/test2/10_5.odb,Step-1,Increment      1: Step Time =    1.000,"PART-1-1",           539,           -1.,      -27.1875,            0.,NA,NA,"",   27.7698E-03,  -25.7338E-03,  -10.4370E-03,   6.51190E-03
C:/temp/dataset/test2/10_5.odb,Step-1,Increment      1: Step Time =    1.000,"PART-1-1",           540,            0.,       -28.125,            0.,NA,NA,"",   10.6678E-03,  -10.6664E-03,   170.499E-06,   4.10515E-03
C:/temp/dataset/test2/10_5.odb,Step-1,Increment      1: Step Time =    1.000,"PART-1-1",           541,           -3.,      -27.1875,            0.,NA,NA,"",   47.7933E-03,  -33.3160E-03,  -34.2672E-03,   14.7768E-03
C:/temp/dataset/test2/10_5.odb,Step-1,Increment      1: Step Time =    1.000,"PART-1-1",           542,           -2.,       -28.125,            0.,NA,NA,"",   19.2827E-03,  -13.6663E-03,  -13.6035E-03,   10.5433E-03
C:/temp/dataset/test2/10_5.odb,Step-1,Increment      1: Step Time =    1.000,"PART-1-1",           543,           -5.,      -27.1875,            0.,NA,NA,"",   83.5952E-03,  -50.4873E-03,  -66.6273E-03,   23.9365E-03
C:/temp/dataset/test2/10_5.odb,Step-1,Increment      1: Step Time =    1.000,"PART-1-1",           544,           -4.,       -28.125,            0.,NA,NA,"",   39.9315E-03,  -24.1584E-03,  -31.7947E-03,   20.4008E-03
C:/temp/dataset/test2/10_5.odb,Step-1,Increment      1: Step Time =    1.000,"PART-1-1",           545,            3.,      -29.0625,            0.,NA,NA,"",   11.8517E-03,  -6.06509E-03,   10.1823E-03,   13.7127E-03
C:/temp/dataset/test2/10_5.odb,Step-1,Increment      1: Step Time =    1.000,"PART-1-1",           546,            4.,          -30.,            0.,NA,NA,"",            0.,  -88.5466E-42,   26.0212E-39,   21.5045E-03
C:/temp/dataset/test2/10_5.odb,Step-1,Increment      1: Step Time =    1.000,"PART-1-1",           547,            5.,      -29.0625,            0.,NA,NA,"",   31.5625E-03,  -21.2056E-03,   23.3776E-03,   27.5916E-03
C:/temp/dataset/test2/10_5.odb,Step-1,Increment      1: Step Time =    1.000,"PART-1-1",           548,            1.,      -29.0625,            0.,NA,NA,"",   4.11179E-03,  -2.50406E-03,   3.26136E-03,   4.52372E-03
C:/temp/dataset/test2/10_5.odb,Step-1,Increment      1: Step Time =    1.000,"PART-1-1",           549,            2.,          -30.,            0.,NA,NA,"",            0.,   17.1953E-42,   12.5708E-39,   7.90177E-03
C:/temp/dataset/test2/10_5.odb,Step-1,Increment      1: Step Time =    1.000,"PART-1-1",           550,           -1.,      -29.0625,            0.,NA,NA,"",   3.85572E-03,  -2.26436E-03,  -3.12077E-03,   4.30719E-03
C:/temp/dataset/test2/10_5.odb,Step-1,Increment      1: Step Time =    1.000,"PART-1-1",           551,            0.,          -30.,            0.,NA,NA,"",            0.,   979.473E-42,   12.5696E-42,   760.196E-06
C:/temp/dataset/test2/10_5.odb,Step-1,Increment      1: Step Time =    1.000,"PART-1-1",           552,           -3.,      -29.0625,            0.,NA,NA,"",   11.3777E-03,  -5.39770E-03,  -10.0159E-03,   13.4024E-03
C:/temp/dataset/test2/10_5.odb,Step-1,Increment      1: Step Time =    1.000,"PART-1-1",           553,           -2.,          -30.,            0.,NA,NA,"",            0.,   184.666E-42,  -12.5210E-39,   7.77969E-03
C:/temp/dataset/test2/10_5.odb,Step-1,Increment      1: Step Time =    1.000,"PART-1-1",           554,           -5.,      -29.0625,            0.,NA,NA,"",   31.0136E-03,  -20.5347E-03,  -23.2416E-03,   27.2849E-03
C:/temp/dataset/test2/10_5.odb,Step-1,Increment      1: Step Time =    1.000,"PART-1-1",           555,           -4.,          -30.,            0.,NA,NA,"",            0.,   156.276E-42,  -25.8463E-39,   21.0743E-03
