ODB Name,Step,Frame,Part Instance Name,    êﬂì_ÉâÉxÉã,X,Y,Z,Section Name,Material Name,Section Point,   U-Magnitude,          U-U1,          U-U2,       S-Mises
C:/temp/dataset/test2/10_9.odb,Step-1,Increment      1: Step Time =    1.000,"PART-1-1",             1,            5.,           30.,            0.,NA,NA,"",       5.85962,      -5.85419,   252.373E-03,   22.4143E-09
C:/temp/dataset/test2/10_9.odb,Step-1,Increment      1: Step Time =    1.000,"PART-1-1",             2,            3.,           30.,            0.,NA,NA,"",       5.84257,      -5.84246,   36.1149E-03,   21.1246E-09
C:/temp/dataset/test2/10_9.odb,Step-1,Increment      1: Step Time =    1.000,"PART-1-1",             3,            1.,           30.,            0.,NA,NA,"",       5.83352,      -5.83073,  -180.143E-03,   23.0512E-09
C:/temp/dataset/test2/10_9.odb,Step-1,Increment      1: Step Time =    1.000,"PART-1-1",             4,           -1.,           30.,            0.,NA,NA,"",       5.83249,      -5.81901,  -396.401E-03,   24.3813E-09
C:/temp/dataset/test2/10_9.odb,Step-1,Increment      1: Step Time =    1.000,"PART-1-1",             5,           -3.,           30.,            0.,NA,NA,"",       5.83951,      -5.80728,  -612.659E-03,   24.4041E-09
C:/temp/dataset/test2/10_9.odb,Step-1,Increment      1: Step Time =    1.000,"PART-1-1",             6,           -5.,           30.,            0.,NA,NA,"",       5.85453,      -5.79556,  -828.918E-03,   22.6829E-09
C:/temp/dataset/test2/10_9.odb,Step-1,Increment      1: Step Time =    1.000,"PART-1-1",             7,            5.,        28.125,            0.,NA,NA,"",       5.65758,      -5.65144,   263.366E-03,   24.7866E-09
C:/temp/dataset/test2/10_9.odb,Step-1,Increment      1: Step Time =    1.000,"PART-1-1",             8,            3.,        28.125,            0.,NA,NA,"",       5.63991,      -5.63972,   47.1082E-03,   22.4170E-09
C:/temp/dataset/test2/10_9.odb,Step-1,Increment      1: Step Time =    1.000,"PART-1-1",             9,            1.,        28.125,            0.,NA,NA,"",       5.63053,      -5.62799,  -169.150E-03,   21.3151E-09
C:/temp/dataset/test2/10_9.odb,Step-1,Increment      1: Step Time =    1.000,"PART-1-1",            10,           -1.,        28.125,            0.,NA,NA,"",       5.62947,      -5.61627,  -385.408E-03,   20.9522E-09
C:/temp/dataset/test2/10_9.odb,Step-1,Increment      1: Step Time =    1.000,"PART-1-1",            11,           -3.,        28.125,            0.,NA,NA,"",       5.63674,      -5.60454,  -601.666E-03,   21.3065E-09
C:/temp/dataset/test2/10_9.odb,Step-1,Increment      1: Step Time =    1.000,"PART-1-1",            12,           -5.,        28.125,            0.,NA,NA,"",       5.65231,      -5.59281,  -817.924E-03,   21.1587E-09
C:/temp/dataset/test2/10_9.odb,Step-1,Increment      1: Step Time =    1.000,"PART-1-1",            13,            5.,         26.25,            0.,NA,NA,"",       5.45561,      -5.44870,   274.360E-03,   27.5758E-09
C:/temp/dataset/test2/10_9.odb,Step-1,Increment      1: Step Time =    1.000,"PART-1-1",            14,            3.,         26.25,            0.,NA,NA,"",       5.43729,      -5.43698,   58.1016E-03,   21.1455E-09
C:/temp/dataset/test2/10_9.odb,Step-1,Increment      1: Step Time =    1.000,"PART-1-1",            15,            1.,         26.25,            0.,NA,NA,"",       5.42755,      -5.42525,  -158.156E-03,   18.8816E-09
C:/temp/dataset/test2/10_9.odb,Step-1,Increment      1: Step Time =    1.000,"PART-1-1",            16,           -1.,         26.25,            0.,NA,NA,"",       5.42646,      -5.41352,  -374.415E-03,   18.4467E-09
C:/temp/dataset/test2/10_9.odb,Step-1,Increment      1: Step Time =    1.000,"PART-1-1",            17,           -3.,         26.25,            0.,NA,NA,"",       5.43400,      -5.40180,  -590.673E-03,   18.6448E-09
C:/temp/dataset/test2/10_9.odb,Step-1,Increment      1: Step Time =    1.000,"PART-1-1",            18,           -5.,         26.25,            0.,NA,NA,"",       5.45014,      -5.39007,  -806.931E-03,   22.0717E-09
C:/temp/dataset/test2/10_9.odb,Step-1,Increment      1: Step Time =    1.000,"PART-1-1",            19,            5.,        24.375,            0.,NA,NA,"",       5.25372,      -5.24596,   285.353E-03,   27.8809E-09
C:/temp/dataset/test2/10_9.odb,Step-1,Increment      1: Step Time =    1.000,"PART-1-1",            20,            3.,        24.375,            0.,NA,NA,"",       5.23469,      -5.23423,   69.0949E-03,   21.6021E-09
C:/temp/dataset/test2/10_9.odb,Step-1,Increment      1: Step Time =    1.000,"PART-1-1",            21,            1.,        24.375,            0.,NA,NA,"",       5.22458,      -5.22251,  -147.163E-03,   25.2523E-09
C:/temp/dataset/test2/10_9.odb,Step-1,Increment      1: Step Time =    1.000,"PART-1-1",            22,           -1.,        24.375,            0.,NA,NA,"",       5.22344,      -5.21078,  -363.421E-03,   25.4956E-09
C:/temp/dataset/test2/10_9.odb,Step-1,Increment      1: Step Time =    1.000,"PART-1-1",            23,           -3.,        24.375,            0.,NA,NA,"",       5.23127,      -5.19906,  -579.679E-03,   20.2997E-09
C:/temp/dataset/test2/10_9.odb,Step-1,Increment      1: Step Time =    1.000,"PART-1-1",            24,           -5.,        24.375,            0.,NA,NA,"",       5.24804,      -5.18733,  -795.937E-03,   20.8617E-09
C:/temp/dataset/test2/10_9.odb,Step-1,Increment      1: Step Time =    1.000,"PART-1-1",            25,            5.,          22.5,            0.,NA,NA,"",       5.05192,      -5.04322,   296.346E-03,   21.5178E-09
C:/temp/dataset/test2/10_9.odb,Step-1,Increment      1: Step Time =    1.000,"PART-1-1",            26,            3.,          22.5,            0.,NA,NA,"",       5.03213,      -5.03149,   80.0883E-03,   49.5789E-09
C:/temp/dataset/test2/10_9.odb,Step-1,Increment      1: Step Time =    1.000,"PART-1-1",            27,            1.,          22.5,            0.,NA,NA,"",       5.02161,      -5.01977,  -136.170E-03,   66.3708E-09
C:/temp/dataset/test2/10_9.odb,Step-1,Increment      1: Step Time =    1.000,"PART-1-1",            28,           -1.,          22.5,            0.,NA,NA,"",       5.02043,      -5.00804,  -352.428E-03,   66.5263E-09
C:/temp/dataset/test2/10_9.odb,Step-1,Increment      1: Step Time =    1.000,"PART-1-1",            29,           -3.,          22.5,            0.,NA,NA,"",       5.02857,      -4.99631,  -568.686E-03,   51.3485E-09
C:/temp/dataset/test2/10_9.odb,Step-1,Increment      1: Step Time =    1.000,"PART-1-1",            30,           -5.,          22.5,            0.,NA,NA,"",       5.04601,      -4.98459,  -784.944E-03,   25.2000E-09
C:/temp/dataset/test2/10_9.odb,Step-1,Increment      1: Step Time =    1.000,"PART-1-1",            31,            5.,        20.625,            0.,NA,NA,"",       4.85022,      -4.84048,   307.340E-03,   66.7520E-09
C:/temp/dataset/test2/10_9.odb,Step-1,Increment      1: Step Time =    1.000,"PART-1-1",            32,            3.,        20.625,            0.,NA,NA,"",       4.82961,      -4.82875,   91.0816E-03,   131.837E-09
C:/temp/dataset/test2/10_9.odb,Step-1,Increment      1: Step Time =    1.000,"PART-1-1",            33,            1.,        20.625,            0.,NA,NA,"",       4.81865,      -4.81702,  -125.177E-03,   162.941E-09
C:/temp/dataset/test2/10_9.odb,Step-1,Increment      1: Step Time =    1.000,"PART-1-1",            34,           -1.,        20.625,            0.,NA,NA,"",       4.81741,      -4.80530,  -341.435E-03,   162.481E-09
C:/temp/dataset/test2/10_9.odb,Step-1,Increment      1: Step Time =    1.000,"PART-1-1",            35,           -3.,        20.625,            0.,NA,NA,"",       4.82590,      -4.79357,  -557.693E-03,   134.698E-09
C:/temp/dataset/test2/10_9.odb,Step-1,Increment      1: Step Time =    1.000,"PART-1-1",            36,           -5.,        20.625,            0.,NA,NA,"",       4.84407,      -4.78185,  -773.951E-03,   85.5941E-09
C:/temp/dataset/test2/10_9.odb,Step-1,Increment      1: Step Time =    1.000,"PART-1-1",            37,            5.,         18.75,            0.,NA,NA,"",       4.64865,      -4.63774,   318.333E-03,   232.502E-09
C:/temp/dataset/test2/10_9.odb,Step-1,Increment      1: Step Time =    1.000,"PART-1-1",            38,            3.,         18.75,            0.,NA,NA,"",       4.62714,      -4.62601,   102.075E-03,   291.050E-09
C:/temp/dataset/test2/10_9.odb,Step-1,Increment      1: Step Time =    1.000,"PART-1-1",            39,            1.,         18.75,            0.,NA,NA,"",       4.61569,      -4.61428,  -114.184E-03,   335.905E-09
C:/temp/dataset/test2/10_9.odb,Step-1,Increment      1: Step Time =    1.000,"PART-1-1",            40,           -1.,         18.75,            0.,NA,NA,"",       4.61440,      -4.60256,  -330.442E-03,   334.564E-09
C:/temp/dataset/test2/10_9.odb,Step-1,Increment      1: Step Time =    1.000,"PART-1-1",            41,           -3.,         18.75,            0.,NA,NA,"",       4.62327,      -4.59083,  -546.699E-03,   294.141E-09
C:/temp/dataset/test2/10_9.odb,Step-1,Increment      1: Step Time =    1.000,"PART-1-1",            42,           -5.,         18.75,            0.,NA,NA,"",       4.64223,      -4.57910,  -762.957E-03,   256.201E-09
C:/temp/dataset/test2/10_9.odb,Step-1,Increment      1: Step Time =    1.000,"PART-1-1",            43,            5.,        16.875,            0.,NA,NA,"",       4.44720,      -4.43499,   329.327E-03,   593.354E-09
C:/temp/dataset/test2/10_9.odb,Step-1,Increment      1: Step Time =    1.000,"PART-1-1",            44,            3.,        16.875,            0.,NA,NA,"",       4.42471,      -4.42327,   113.068E-03,   523.751E-09
C:/temp/dataset/test2/10_9.odb,Step-1,Increment      1: Step Time =    1.000,"PART-1-1",            45,            1.,        16.875,            0.,NA,NA,"",       4.41275,      -4.41154,  -103.191E-03,   567.180E-09
C:/temp/dataset/test2/10_9.odb,Step-1,Increment      1: Step Time =    1.000,"PART-1-1",            46,           -1.,        16.875,            0.,NA,NA,"",       4.41140,      -4.39981,  -319.449E-03,   564.428E-09
C:/temp/dataset/test2/10_9.odb,Step-1,Increment      1: Step Time =    1.000,"PART-1-1",            47,           -3.,        16.875,            0.,NA,NA,"",       4.42067,      -4.38809,  -535.706E-03,   526.106E-09
C:/temp/dataset/test2/10_9.odb,Step-1,Increment      1: Step Time =    1.000,"PART-1-1",            48,           -5.,        16.875,            0.,NA,NA,"",       4.44049,      -4.37636,  -751.963E-03,   620.629E-09
C:/temp/dataset/test2/10_9.odb,Step-1,Increment      1: Step Time =    1.000,"PART-1-1",            49,            5.,           15.,            0.,NA,NA,"",       4.24591,      -4.23225,   340.322E-03,   1.22525E-06
C:/temp/dataset/test2/10_9.odb,Step-1,Increment      1: Step Time =    1.000,"PART-1-1",            50,            3.,           15.,            0.,NA,NA,"",       4.22235,      -4.22052,   124.062E-03,   690.587E-09
C:/temp/dataset/test2/10_9.odb,Step-1,Increment      1: Step Time =    1.000,"PART-1-1",            51,            1.,           15.,            0.,NA,NA,"",       4.20981,      -4.20880,  -92.1983E-03,   710.291E-09
C:/temp/dataset/test2/10_9.odb,Step-1,Increment      1: Step Time =    1.000,"PART-1-1",            52,           -1.,           15.,            0.,NA,NA,"",       4.20839,      -4.19707,  -308.456E-03,   704.618E-09
C:/temp/dataset/test2/10_9.odb,Step-1,Increment      1: Step Time =    1.000,"PART-1-1",            53,           -3.,           15.,            0.,NA,NA,"",       4.21811,      -4.18535,  -524.712E-03,   689.498E-09
C:/temp/dataset/test2/10_9.odb,Step-1,Increment      1: Step Time =    1.000,"PART-1-1",            54,           -5.,           15.,            0.,NA,NA,"",       4.23888,      -4.17362,  -740.968E-03,   1.25367E-06
C:/temp/dataset/test2/10_9.odb,Step-1,Increment      1: Step Time =    1.000,"PART-1-1",            55,            5.,        13.125,            0.,NA,NA,"",       4.04479,      -4.02951,   351.319E-03,   2.00999E-06
C:/temp/dataset/test2/10_9.odb,Step-1,Increment      1: Step Time =    1.000,"PART-1-1",            56,            3.,        13.125,            0.,NA,NA,"",       4.02005,      -4.01778,   135.055E-03,   414.543E-09
C:/temp/dataset/test2/10_9.odb,Step-1,Increment      1: Step Time =    1.000,"PART-1-1",            57,            1.,        13.125,            0.,NA,NA,"",       4.00688,      -4.00606,  -81.2054E-03,   1.00191E-06
C:/temp/dataset/test2/10_9.odb,Step-1,Increment      1: Step Time =    1.000,"PART-1-1",            58,           -1.,        13.125,            0.,NA,NA,"",       4.00539,      -3.99433,  -297.464E-03,   997.204E-09
C:/temp/dataset/test2/10_9.odb,Step-1,Increment      1: Step Time =    1.000,"PART-1-1",            59,           -3.,        13.125,            0.,NA,NA,"",       4.01560,      -3.98261,  -513.719E-03,   409.062E-09
C:/temp/dataset/test2/10_9.odb,Step-1,Increment      1: Step Time =    1.000,"PART-1-1",            60,           -5.,        13.125,            0.,NA,NA,"",       4.03742,      -3.97088,  -729.972E-03,   2.03041E-06
C:/temp/dataset/test2/10_9.odb,Step-1,Increment      1: Step Time =    1.000,"PART-1-1",            61,            5.,         11.25,            0.,NA,NA,"",       3.84387,      -3.82676,   362.317E-03,   2.10145E-06
C:/temp/dataset/test2/10_9.odb,Step-1,Increment      1: Step Time =    1.000,"PART-1-1",            62,            3.,         11.25,            0.,NA,NA,"",       3.81783,      -3.81503,   146.050E-03,   2.70927E-06
C:/temp/dataset/test2/10_9.odb,Step-1,Increment      1: Step Time =    1.000,"PART-1-1",            63,            1.,         11.25,            0.,NA,NA,"",       3.80396,      -3.80331,  -70.2103E-03,   4.51330E-06
C:/temp/dataset/test2/10_9.odb,Step-1,Increment      1: Step Time =    1.000,"PART-1-1",            64,           -1.,         11.25,            0.,NA,NA,"",       3.80240,      -3.79159,  -286.469E-03,   4.51468E-06
C:/temp/dataset/test2/10_9.odb,Step-1,Increment      1: Step Time =    1.000,"PART-1-1",            65,           -3.,         11.25,            0.,NA,NA,"",       3.81316,      -3.77987,  -502.726E-03,   2.73390E-06
C:/temp/dataset/test2/10_9.odb,Step-1,Increment      1: Step Time =    1.000,"PART-1-1",            66,           -5.,         11.25,            0.,NA,NA,"",       3.83613,      -3.76815,  -718.976E-03,   2.08563E-06
C:/temp/dataset/test2/10_9.odb,Step-1,Increment      1: Step Time =    1.000,"PART-1-1",            67,            5.,         9.375,            0.,NA,NA,"",       3.64317,      -3.62400,   373.314E-03,   1.64623E-06
C:/temp/dataset/test2/10_9.odb,Step-1,Increment      1: Step Time =    1.000,"PART-1-1",            68,            3.,         9.375,            0.,NA,NA,"",       3.61568,      -3.61227,   157.045E-03,   11.3978E-06
C:/temp/dataset/test2/10_9.odb,Step-1,Increment      1: Step Time =    1.000,"PART-1-1",            69,            1.,         9.375,            0.,NA,NA,"",       3.60105,      -3.60056,  -59.2069E-03,   15.2934E-06
C:/temp/dataset/test2/10_9.odb,Step-1,Increment      1: Step Time =    1.000,"PART-1-1",            70,           -1.,         9.375,            0.,NA,NA,"",       3.59942,      -3.58886,  -275.468E-03,   15.2474E-06
C:/temp/dataset/test2/10_9.odb,Step-1,Increment      1: Step Time =    1.000,"PART-1-1",            71,           -3.,         9.375,            0.,NA,NA,"",       3.61079,      -3.57715,  -491.735E-03,   11.3910E-06
C:/temp/dataset/test2/10_9.odb,Step-1,Increment      1: Step Time =    1.000,"PART-1-1",            72,           -5.,         9.375,            0.,NA,NA,"",       3.63504,      -3.56542,  -707.982E-03,   1.73736E-06
C:/temp/dataset/test2/10_9.odb,Step-1,Increment      1: Step Time =    1.000,"PART-1-1",            73,            5.,           7.5,            0.,NA,NA,"",       3.44273,      -3.42122,   384.301E-03,   16.1311E-06
C:/temp/dataset/test2/10_9.odb,Step-1,Increment      1: Step Time =    1.000,"PART-1-1",            74,            3.,           7.5,            0.,NA,NA,"",       3.41363,      -3.40949,   168.042E-03,   33.1328E-06
C:/temp/dataset/test2/10_9.odb,Step-1,Increment      1: Step Time =    1.000,"PART-1-1",            75,            1.,           7.5,            0.,NA,NA,"",       3.39815,      -3.39780,  -48.1821E-03,   40.5207E-06
C:/temp/dataset/test2/10_9.odb,Step-1,Increment      1: Step Time =    1.000,"PART-1-1",            76,           -1.,           7.5,            0.,NA,NA,"",       3.39645,      -3.38614,  -264.447E-03,   40.1917E-06
C:/temp/dataset/test2/10_9.odb,Step-1,Increment      1: Step Time =    1.000,"PART-1-1",            77,           -3.,           7.5,            0.,NA,NA,"",       3.40852,      -3.37445,  -480.747E-03,   32.5973E-06
C:/temp/dataset/test2/10_9.odb,Step-1,Increment      1: Step Time =    1.000,"PART-1-1",            78,           -5.,           7.5,            0.,NA,NA,"",       3.43419,      -3.36272,  -697.004E-03,   16.1652E-06
C:/temp/dataset/test2/10_9.odb,Step-1,Increment      1: Step Time =    1.000,"PART-1-1",            79,            5.,         5.625,            0.,NA,NA,"",       3.24259,      -3.21841,   395.248E-03,   57.8802E-06
C:/temp/dataset/test2/10_9.odb,Step-1,Increment      1: Step Time =    1.000,"PART-1-1",            80,            3.,         5.625,            0.,NA,NA,"",       3.21167,      -3.20667,   179.041E-03,   79.0239E-06
C:/temp/dataset/test2/10_9.odb,Step-1,Increment      1: Step Time =    1.000,"PART-1-1",            81,            1.,         5.625,            0.,NA,NA,"",       3.19526,      -3.19504,  -37.1100E-03,   90.2016E-06
C:/temp/dataset/test2/10_9.odb,Step-1,Increment      1: Step Time =    1.000,"PART-1-1",            82,           -1.,         5.625,            0.,NA,NA,"",       3.19351,      -3.18344,  -253.386E-03,   88.2082E-06
C:/temp/dataset/test2/10_9.odb,Step-1,Increment      1: Step Time =    1.000,"PART-1-1",            83,           -3.,         5.625,            0.,NA,NA,"",       3.20637,      -3.17178,  -469.765E-03,   75.0769E-06
C:/temp/dataset/test2/10_9.odb,Step-1,Increment      1: Step Time =    1.000,"PART-1-1",            84,           -5.,         5.625,            0.,NA,NA,"",       3.23364,      -3.16002,  -686.069E-03,   56.6444E-06
C:/temp/dataset/test2/10_9.odb,Step-1,Increment      1: Step Time =    1.000,"PART-1-1",            85,            5.,          3.75,            0.,NA,NA,"",       3.04282,      -3.01560,   406.077E-03,   160.321E-06
C:/temp/dataset/test2/10_9.odb,Step-1,Increment      1: Step Time =    1.000,"PART-1-1",            86,            3.,          3.75,            0.,NA,NA,"",       3.00984,      -3.00384,   190.042E-03,   158.920E-06
C:/temp/dataset/test2/10_9.odb,Step-1,Increment      1: Step Time =    1.000,"PART-1-1",            87,            1.,          3.75,            0.,NA,NA,"",       2.99240,      -2.99228,  -25.9524E-03,   168.458E-06
C:/temp/dataset/test2/10_9.odb,Step-1,Increment      1: Step Time =    1.000,"PART-1-1",            88,           -1.,          3.75,            0.,NA,NA,"",       2.99059,      -2.98076,  -242.252E-03,   160.407E-06
C:/temp/dataset/test2/10_9.odb,Step-1,Increment      1: Step Time =    1.000,"PART-1-1",            89,           -3.,          3.75,            0.,NA,NA,"",       3.00435,      -2.96912,  -458.793E-03,   141.583E-06
C:/temp/dataset/test2/10_9.odb,Step-1,Increment      1: Step Time =    1.000,"PART-1-1",            90,           -5.,          3.75,            0.,NA,NA,"",       3.03342,      -2.95731,  -675.236E-03,   146.791E-06
C:/temp/dataset/test2/10_9.odb,Step-1,Increment      1: Step Time =    1.000,"PART-1-1",            91,            5.,         1.875,            0.,NA,NA,"",       2.84356,      -2.81287,   416.662E-03,   366.502E-06
C:/temp/dataset/test2/10_9.odb,Step-1,Increment      1: Step Time =    1.000,"PART-1-1",            92,            3.,         1.875,            0.,NA,NA,"",       2.80829,      -2.80108,   201.054E-03,   268.676E-06
C:/temp/dataset/test2/10_9.odb,Step-1,Increment      1: Step Time =    1.000,"PART-1-1",            93,            1.,         1.875,            0.,NA,NA,"",       2.78964,      -2.78960,  -14.6765E-03,   251.236E-06
C:/temp/dataset/test2/10_9.odb,Step-1,Increment      1: Step Time =    1.000,"PART-1-1",            94,           -1.,         1.875,            0.,NA,NA,"",       2.78766,      -2.77807,  -231.028E-03,   224.162E-06
C:/temp/dataset/test2/10_9.odb,Step-1,Increment      1: Step Time =    1.000,"PART-1-1",            95,           -3.,         1.875,            0.,NA,NA,"",       2.80238,      -2.76637,  -447.834E-03,   202.171E-06
C:/temp/dataset/test2/10_9.odb,Step-1,Increment      1: Step Time =    1.000,"PART-1-1",            96,           -5.,         1.875,            0.,NA,NA,"",       2.83349,      -2.75445,  -664.597E-03,   305.381E-06
C:/temp/dataset/test2/10_9.odb,Step-1,Increment      1: Step Time =    1.000,"PART-1-1",            97,            5.,            0.,            0.,NA,NA,"",       2.64527,      -2.61065,   426.599E-03,   784.282E-06
C:/temp/dataset/test2/10_9.odb,Step-1,Increment      1: Step Time =    1.000,"PART-1-1",            98,            3.,            0.,            0.,NA,NA,"",       2.60743,      -2.59879,   212.045E-03,   264.828E-06
C:/temp/dataset/test2/10_9.odb,Step-1,Increment      1: Step Time =    1.000,"PART-1-1",            99,            1.,            0.,            0.,NA,NA,"",       2.58713,      -2.58713,  -3.35972E-03,   296.577E-06
C:/temp/dataset/test2/10_9.odb,Step-1,Increment      1: Step Time =    1.000,"PART-1-1",           100,           -1.,            0.,            0.,NA,NA,"",       2.58456,      -2.57520,  -219.788E-03,   216.684E-06
C:/temp/dataset/test2/10_9.odb,Step-1,Increment      1: Step Time =    1.000,"PART-1-1",           101,           -3.,            0.,            0.,NA,NA,"",       2.60020,      -2.56323,  -436.878E-03,   156.213E-06
C:/temp/dataset/test2/10_9.odb,Step-1,Increment      1: Step Time =    1.000,"PART-1-1",           102,           -5.,            0.,            0.,NA,NA,"",       2.63368,      -2.55113,  -654.232E-03,   501.775E-06
C:/temp/dataset/test2/10_9.odb,Step-1,Increment      1: Step Time =    1.000,"PART-1-1",           103,            5.,        -1.875,            0.,NA,NA,"",       2.44921,      -2.41013,   435.746E-03,   1.78481E-03
C:/temp/dataset/test2/10_9.odb,Step-1,Increment      1: Step Time =    1.000,"PART-1-1",           104,            3.,        -1.875,            0.,NA,NA,"",       2.40824,      -2.39788,   223.092E-03,   1.11829E-03
C:/temp/dataset/test2/10_9.odb,Step-1,Increment      1: Step Time =    1.000,"PART-1-1",           105,            1.,        -1.875,            0.,NA,NA,"",       2.38494,      -2.38493,   7.49396E-03,   1.06080E-03
C:/temp/dataset/test2/10_9.odb,Step-1,Increment      1: Step Time =    1.000,"PART-1-1",           106,           -1.,        -1.875,            0.,NA,NA,"",       2.38077,      -2.37160,  -208.786E-03,   761.797E-06
C:/temp/dataset/test2/10_9.odb,Step-1,Increment      1: Step Time =    1.000,"PART-1-1",           107,           -3.,        -1.875,            0.,NA,NA,"",       2.39718,      -2.35905,  -425.849E-03,   342.734E-06
C:/temp/dataset/test2/10_9.odb,Step-1,Increment      1: Step Time =    1.000,"PART-1-1",           108,           -5.,        -1.875,            0.,NA,NA,"",       2.43355,      -2.34678,  -644.053E-03,   569.500E-06
C:/temp/dataset/test2/10_9.odb,Step-1,Increment      1: Step Time =    1.000,"PART-1-1",           109,            5.,         -3.75,            0.,NA,NA,"",       2.26207,      -2.21847,   442.001E-03,   4.87478E-03
C:/temp/dataset/test2/10_9.odb,Step-1,Increment      1: Step Time =    1.000,"PART-1-1",           110,            3.,         -3.75,            0.,NA,NA,"",       2.21227,      -2.20009,   231.800E-03,   5.20286E-03
C:/temp/dataset/test2/10_9.odb,Step-1,Increment      1: Step Time =    1.000,"PART-1-1",           111,            1.,         -3.75,            0.,NA,NA,"",       2.18175,      -2.18169,   16.5676E-03,   3.36756E-03
C:/temp/dataset/test2/10_9.odb,Step-1,Increment      1: Step Time =    1.000,"PART-1-1",           112,           -1.,         -3.75,            0.,NA,NA,"",       2.17505,      -2.16599,  -198.328E-03,   2.33871E-03
C:/temp/dataset/test2/10_9.odb,Step-1,Increment      1: Step Time =    1.000,"PART-1-1",           113,           -3.,         -3.75,            0.,NA,NA,"",       2.19236,      -2.15283,  -414.438E-03,   1.39704E-03
C:/temp/dataset/test2/10_9.odb,Step-1,Increment      1: Step Time =    1.000,"PART-1-1",           114,           -5.,         -3.75,            0.,NA,NA,"",       2.23247,      -2.14070,  -633.518E-03,   164.526E-06
C:/temp/dataset/test2/10_9.odb,Step-1,Increment      1: Step Time =    1.000,"PART-1-1",           115,            5.,        -5.625,            0.,NA,NA,"",       2.07245,      -2.02214,   453.872E-03,   9.55647E-03
C:/temp/dataset/test2/10_9.odb,Step-1,Increment      1: Step Time =    1.000,"PART-1-1",           116,            3.,        -5.625,            0.,NA,NA,"",       2.01024,      -1.99633,   236.095E-03,   9.68509E-03
C:/temp/dataset/test2/10_9.odb,Step-1,Increment      1: Step Time =    1.000,"PART-1-1",           117,            1.,        -5.625,            0.,NA,NA,"",       1.97359,      -1.97345,   23.4429E-03,   6.49250E-03
C:/temp/dataset/test2/10_9.odb,Step-1,Increment      1: Step Time =    1.000,"PART-1-1",           118,           -1.,        -5.625,            0.,NA,NA,"",       1.96567,      -1.95665,  -188.093E-03,   4.66635E-03
C:/temp/dataset/test2/10_9.odb,Step-1,Increment      1: Step Time =    1.000,"PART-1-1",           119,           -3.,        -5.625,            0.,NA,NA,"",       1.98489,      -1.94377,  -401.915E-03,   3.10497E-03
C:/temp/dataset/test2/10_9.odb,Step-1,Increment      1: Step Time =    1.000,"PART-1-1",           120,           -5.,        -5.625,            0.,NA,NA,"",       2.02996,      -1.93251,  -621.393E-03,   1.18331E-03
C:/temp/dataset/test2/10_9.odb,Step-1,Increment      1: Step Time =    1.000,"PART-1-1",           121,            5.,          -7.5,            0.,NA,NA,"",       1.85942,      -1.80025,   465.341E-03,   6.69399E-03
C:/temp/dataset/test2/10_9.odb,Step-1,Increment      1: Step Time =    1.000,"PART-1-1",           122,            3.,          -7.5,            0.,NA,NA,"",       1.79361,      -1.77746,   240.115E-03,   10.3839E-03
C:/temp/dataset/test2/10_9.odb,Step-1,Increment      1: Step Time =    1.000,"PART-1-1",           123,            1.,          -7.5,            0.,NA,NA,"",       1.75857,      -1.75831,   30.4182E-03,   8.76544E-03
C:/temp/dataset/test2/10_9.odb,Step-1,Increment      1: Step Time =    1.000,"PART-1-1",           124,           -1.,          -7.5,            0.,NA,NA,"",       1.75239,      -1.74345,  -176.805E-03,   6.93033E-03
C:/temp/dataset/test2/10_9.odb,Step-1,Increment      1: Step Time =    1.000,"PART-1-1",           125,           -3.,          -7.5,            0.,NA,NA,"",       1.77503,      -1.73228,  -387.209E-03,   5.14096E-03
C:/temp/dataset/test2/10_9.odb,Step-1,Increment      1: Step Time =    1.000,"PART-1-1",           126,           -5.,          -7.5,            0.,NA,NA,"",       1.82636,      -1.72291,  -605.930E-03,   3.61256E-03
C:/temp/dataset/test2/10_9.odb,Step-1,Increment      1: Step Time =    1.000,"PART-1-1",           127,            5.,        -9.375,            0.,NA,NA,"",       1.64173,      -1.57429,   465.709E-03,   8.89400E-03
C:/temp/dataset/test2/10_9.odb,Step-1,Increment      1: Step Time =    1.000,"PART-1-1",           128,            3.,        -9.375,            0.,NA,NA,"",       1.57500,      -1.55573,   245.650E-03,   7.68937E-03
C:/temp/dataset/test2/10_9.odb,Step-1,Increment      1: Step Time =    1.000,"PART-1-1",           129,            1.,        -9.375,            0.,NA,NA,"",       1.54150,      -1.54100,   39.0645E-03,   9.19400E-03
C:/temp/dataset/test2/10_9.odb,Step-1,Increment      1: Step Time =    1.000,"PART-1-1",           130,           -1.,        -9.375,            0.,NA,NA,"",       1.53786,      -1.52914,  -163.510E-03,   8.39959E-03
C:/temp/dataset/test2/10_9.odb,Step-1,Increment      1: Step Time =    1.000,"PART-1-1",           131,           -3.,        -9.375,            0.,NA,NA,"",       1.56476,      -1.52052,  -369.449E-03,   7.14509E-03
C:/temp/dataset/test2/10_9.odb,Step-1,Increment      1: Step Time =    1.000,"PART-1-1",           132,           -5.,        -9.375,            0.,NA,NA,"",       1.62322,      -1.51394,  -585.526E-03,   6.95716E-03
C:/temp/dataset/test2/10_9.odb,Step-1,Increment      1: Step Time =    1.000,"PART-1-1",           133,            5.,        -11.25,            0.,NA,NA,"",       1.43735,      -1.36174,   460.022E-03,   12.1903E-03
C:/temp/dataset/test2/10_9.odb,Step-1,Increment      1: Step Time =    1.000,"PART-1-1",           134,            3.,        -11.25,            0.,NA,NA,"",       1.36475,      -1.34196,   248.392E-03,   8.76141E-03
C:/temp/dataset/test2/10_9.odb,Step-1,Increment      1: Step Time =    1.000,"PART-1-1",           135,            1.,        -11.25,            0.,NA,NA,"",       1.32856,      -1.32770,   47.8322E-03,   8.95162E-03
C:/temp/dataset/test2/10_9.odb,Step-1,Increment      1: Step Time =    1.000,"PART-1-1",           136,           -1.,        -11.25,            0.,NA,NA,"",       1.32617,      -1.31783,  -148.542E-03,   9.05816E-03
C:/temp/dataset/test2/10_9.odb,Step-1,Increment      1: Step Time =    1.000,"PART-1-1",           137,           -3.,        -11.25,            0.,NA,NA,"",       1.35722,      -1.31175,  -348.366E-03,   9.01388E-03
C:/temp/dataset/test2/10_9.odb,Step-1,Increment      1: Step Time =    1.000,"PART-1-1",           138,           -5.,        -11.25,            0.,NA,NA,"",       1.42305,      -1.30853,  -559.301E-03,   10.7959E-03
C:/temp/dataset/test2/10_9.odb,Step-1,Increment      1: Step Time =    1.000,"PART-1-1",           139,            5.,       -13.125,            0.,NA,NA,"",       1.24114,      -1.15763,   447.552E-03,   15.6106E-03
C:/temp/dataset/test2/10_9.odb,Step-1,Increment      1: Step Time =    1.000,"PART-1-1",           140,            3.,       -13.125,            0.,NA,NA,"",       1.16270,      -1.13635,   246.118E-03,   10.7046E-03
C:/temp/dataset/test2/10_9.odb,Step-1,Increment      1: Step Time =    1.000,"PART-1-1",           141,            1.,       -13.125,            0.,NA,NA,"",       1.12313,      -1.12179,   54.8772E-03,   9.03768E-03
C:/temp/dataset/test2/10_9.odb,Step-1,Increment      1: Step Time =    1.000,"PART-1-1",           142,           -1.,       -13.125,            0.,NA,NA,"",       1.12096,      -1.11307,  -132.751E-03,   9.33640E-03
C:/temp/dataset/test2/10_9.odb,Step-1,Increment      1: Step Time =    1.000,"PART-1-1",           143,           -3.,       -13.125,            0.,NA,NA,"",       1.15574,      -1.10936,  -324.139E-03,   10.8557E-03
C:/temp/dataset/test2/10_9.odb,Step-1,Increment      1: Step Time =    1.000,"PART-1-1",           144,           -5.,       -13.125,            0.,NA,NA,"",       1.22863,      -1.10982,  -527.115E-03,   14.7684E-03
C:/temp/dataset/test2/10_9.odb,Step-1,Increment      1: Step Time =    1.000,"PART-1-1",           145,            5.,          -15.,            0.,NA,NA,"",       1.05412,  -963.229E-03,   428.193E-03,   19.2216E-03
C:/temp/dataset/test2/10_9.odb,Step-1,Increment      1: Step Time =    1.000,"PART-1-1",           146,            3.,          -15.,            0.,NA,NA,"",   970.332E-03,  -940.471E-03,   238.866E-03,   12.8058E-03
C:/temp/dataset/test2/10_9.odb,Step-1,Increment      1: Step Time =    1.000,"PART-1-1",           147,            1.,          -15.,            0.,NA,NA,"",   927.428E-03,  -925.519E-03,   59.4682E-03,   9.35790E-03
C:/temp/dataset/test2/10_9.odb,Step-1,Increment      1: Step Time =    1.000,"PART-1-1",           148,           -1.,          -15.,            0.,NA,NA,"",   925.116E-03,  -917.719E-03,  -116.750E-03,   9.54237E-03
C:/temp/dataset/test2/10_9.odb,Step-1,Increment      1: Step Time =    1.000,"PART-1-1",           149,           -3.,          -15.,            0.,NA,NA,"",   963.292E-03,  -916.342E-03,  -297.069E-03,   12.7632E-03
C:/temp/dataset/test2/10_9.odb,Step-1,Increment      1: Step Time =    1.000,"PART-1-1",           150,           -5.,          -15.,            0.,NA,NA,"",       1.04259,  -920.685E-03,  -489.215E-03,   18.7041E-03
C:/temp/dataset/test2/10_9.odb,Step-1,Increment      1: Step Time =    1.000,"PART-1-1",           151,            5.,       -16.875,            0.,NA,NA,"",   877.714E-03,  -780.529E-03,   401.442E-03,   22.9406E-03
C:/temp/dataset/test2/10_9.odb,Step-1,Increment      1: Step Time =    1.000,"PART-1-1",           152,            3.,       -16.875,            0.,NA,NA,"",   789.572E-03,  -756.394E-03,   226.480E-03,   14.9531E-03
C:/temp/dataset/test2/10_9.odb,Step-1,Increment      1: Step Time =    1.000,"PART-1-1",           153,            1.,       -16.875,            0.,NA,NA,"",   743.673E-03,  -741.138E-03,   61.3485E-03,   9.77154E-03
C:/temp/dataset/test2/10_9.odb,Step-1,Increment      1: Step Time =    1.000,"PART-1-1",           154,           -1.,       -16.875,            0.,NA,NA,"",   741.190E-03,  -734.295E-03,  -100.859E-03,   9.78540E-03
C:/temp/dataset/test2/10_9.odb,Step-1,Increment      1: Step Time =    1.000,"PART-1-1",           155,           -3.,       -16.875,            0.,NA,NA,"",   782.441E-03,  -735.327E-03,  -267.410E-03,   14.7503E-03
C:/temp/dataset/test2/10_9.odb,Step-1,Increment      1: Step Time =    1.000,"PART-1-1",           156,           -5.,       -16.875,            0.,NA,NA,"",   867.149E-03,  -743.706E-03,  -445.924E-03,   22.5713E-03
C:/temp/dataset/test2/10_9.odb,Step-1,Increment      1: Step Time =    1.000,"PART-1-1",           157,            5.,        -18.75,            0.,NA,NA,"",   713.593E-03,  -611.956E-03,   367.049E-03,   26.7169E-03
C:/temp/dataset/test2/10_9.odb,Step-1,Increment      1: Step Time =    1.000,"PART-1-1",           158,            3.,        -18.75,            0.,NA,NA,"",   622.576E-03,  -586.508E-03,   208.827E-03,   17.1411E-03
C:/temp/dataset/test2/10_9.odb,Step-1,Increment      1: Step Time =    1.000,"PART-1-1",           159,            1.,        -18.75,            0.,NA,NA,"",   574.203E-03,  -571.018E-03,   60.3944E-03,   10.2337E-03
C:/temp/dataset/test2/10_9.odb,Step-1,Increment      1: Step Time =    1.000,"PART-1-1",           160,           -1.,        -18.75,            0.,NA,NA,"",   571.593E-03,  -565.203E-03,  -85.2298E-03,   10.0844E-03
C:/temp/dataset/test2/10_9.odb,Step-1,Increment      1: Step Time =    1.000,"PART-1-1",           161,           -3.,        -18.75,            0.,NA,NA,"",   615.497E-03,  -568.731E-03,  -235.333E-03,   16.8000E-03
C:/temp/dataset/test2/10_9.odb,Step-1,Increment      1: Step Time =    1.000,"PART-1-1",           162,           -5.,        -18.75,            0.,NA,NA,"",   704.165E-03,  -581.249E-03,  -397.489E-03,   26.3873E-03
C:/temp/dataset/test2/10_9.odb,Step-1,Increment      1: Step Time =    1.000,"PART-1-1",           163,            5.,       -20.625,            0.,NA,NA,"",   563.181E-03,  -460.046E-03,   324.855E-03,   30.5165E-03
C:/temp/dataset/test2/10_9.odb,Step-1,Increment      1: Step Time =    1.000,"PART-1-1",           164,            3.,       -20.625,            0.,NA,NA,"",   471.468E-03,  -433.312E-03,   185.803E-03,   19.3603E-03
C:/temp/dataset/test2/10_9.odb,Step-1,Increment      1: Step Time =    1.000,"PART-1-1",           165,            1.,       -20.625,            0.,NA,NA,"",   421.397E-03,  -417.589E-03,   56.5227E-03,   10.7520E-03
C:/temp/dataset/test2/10_9.odb,Step-1,Increment      1: Step Time =    1.000,"PART-1-1",           166,           -1.,       -20.625,            0.,NA,NA,"",   418.703E-03,  -412.821E-03,  -69.9367E-03,   10.4442E-03
C:/temp/dataset/test2/10_9.odb,Step-1,Increment      1: Step Time =    1.000,"PART-1-1",           167,           -3.,       -20.625,            0.,NA,NA,"",   464.590E-03,  -418.889E-03,  -200.938E-03,   18.8874E-03
C:/temp/dataset/test2/10_9.odb,Step-1,Increment      1: Step Time =    1.000,"PART-1-1",           168,           -5.,       -20.625,            0.,NA,NA,"",   555.078E-03,  -435.597E-03,  -344.045E-03,   30.1842E-03
C:/temp/dataset/test2/10_9.odb,Step-1,Increment      1: Step Time =    1.000,"PART-1-1",           169,            5.,         -22.5,            0.,NA,NA,"",   427.457E-03,  -327.364E-03,   274.868E-03,   34.2394E-03
C:/temp/dataset/test2/10_9.odb,Step-1,Increment      1: Step Time =    1.000,"PART-1-1",           170,            3.,         -22.5,            0.,NA,NA,"",   338.135E-03,  -299.311E-03,   157.316E-03,   21.6424E-03
C:/temp/dataset/test2/10_9.odb,Step-1,Increment      1: Step Time =    1.000,"PART-1-1",           171,            1.,         -22.5,            0.,NA,NA,"",   287.564E-03,  -283.242E-03,   49.6711E-03,   11.3435E-03
C:/temp/dataset/test2/10_9.odb,Step-1,Increment      1: Step Time =    1.000,"PART-1-1",           172,           -1.,         -22.5,            0.,NA,NA,"",   284.825E-03,  -279.471E-03,  -54.9635E-03,   10.8681E-03
C:/temp/dataset/test2/10_9.odb,Step-1,Increment      1: Step Time =    1.000,"PART-1-1",           173,           -3.,         -22.5,            0.,NA,NA,"",   331.606E-03,  -288.095E-03,  -164.208E-03,   21.0299E-03
C:/temp/dataset/test2/10_9.odb,Step-1,Increment      1: Step Time =    1.000,"PART-1-1",           174,           -5.,         -22.5,            0.,NA,NA,"",   420.790E-03,  -308.959E-03,  -285.672E-03,   33.9117E-03
C:/temp/dataset/test2/10_9.odb,Step-1,Increment      1: Step Time =    1.000,"PART-1-1",           175,            5.,       -24.375,            0.,NA,NA,"",   306.757E-03,  -216.568E-03,   217.251E-03,   37.9732E-03
C:/temp/dataset/test2/10_9.odb,Step-1,Increment      1: Step Time =    1.000,"PART-1-1",           176,            3.,       -24.375,            0.,NA,NA,"",   224.140E-03,  -187.058E-03,   123.482E-03,   23.9469E-03
C:/temp/dataset/test2/10_9.odb,Step-1,Increment      1: Step Time =    1.000,"PART-1-1",           177,            1.,       -24.375,            0.,NA,NA,"",   175.060E-03,  -170.458E-03,   39.8770E-03,   12.1976E-03
C:/temp/dataset/test2/10_9.odb,Step-1,Increment      1: Step Time =    1.000,"PART-1-1",           178,           -1.,       -24.375,            0.,NA,NA,"",   172.348E-03,  -167.572E-03,  -40.2932E-03,   11.5279E-03
C:/temp/dataset/test2/10_9.odb,Step-1,Increment      1: Step Time =    1.000,"PART-1-1",           179,           -3.,       -24.375,            0.,NA,NA,"",   218.181E-03,  -178.711E-03,  -125.161E-03,   23.1880E-03
C:/temp/dataset/test2/10_9.odb,Step-1,Increment      1: Step Time =    1.000,"PART-1-1",           180,           -5.,       -24.375,            0.,NA,NA,"",   301.543E-03,  -203.700E-03,  -222.338E-03,   37.6927E-03
C:/temp/dataset/test2/10_9.odb,Step-1,Increment      1: Step Time =    1.000,"PART-1-1",           181,            5.,        -26.25,            0.,NA,NA,"",   200.073E-03,  -129.129E-03,   152.823E-03,   40.5911E-03
C:/temp/dataset/test2/10_9.odb,Step-1,Increment      1: Step Time =    1.000,"PART-1-1",           182,            3.,        -26.25,            0.,NA,NA,"",   129.184E-03,  -98.4465E-03,   83.6474E-03,   27.0309E-03
C:/temp/dataset/test2/10_9.odb,Step-1,Increment      1: Step Time =    1.000,"PART-1-1",           183,            1.,        -26.25,            0.,NA,NA,"",   85.9938E-03,  -81.6554E-03,   26.9692E-03,   12.6439E-03
C:/temp/dataset/test2/10_9.odb,Step-1,Increment      1: Step Time =    1.000,"PART-1-1",           184,           -1.,        -26.25,            0.,NA,NA,"",   83.4961E-03,  -79.5296E-03,  -25.4292E-03,   11.7366E-03
C:/temp/dataset/test2/10_9.odb,Step-1,Increment      1: Step Time =    1.000,"PART-1-1",           185,           -3.,        -26.25,            0.,NA,NA,"",   124.218E-03,  -92.5975E-03,  -82.8001E-03,   26.1818E-03
C:/temp/dataset/test2/10_9.odb,Step-1,Increment      1: Step Time =    1.000,"PART-1-1",           186,           -5.,        -26.25,            0.,NA,NA,"",   196.268E-03,  -120.926E-03,  -154.590E-03,   40.3604E-03
C:/temp/dataset/test2/10_9.odb,Step-1,Increment      1: Step Time =    1.000,"PART-1-1",           187,            5.,       -28.125,            0.,NA,NA,"",   105.514E-03,  -64.8330E-03,   83.2460E-03,   46.8385E-03
C:/temp/dataset/test2/10_9.odb,Step-1,Increment      1: Step Time =    1.000,"PART-1-1",           188,            3.,       -28.125,            0.,NA,NA,"",   54.7359E-03,  -35.9991E-03,   41.2321E-03,   29.2674E-03
C:/temp/dataset/test2/10_9.odb,Step-1,Increment      1: Step Time =    1.000,"PART-1-1",           189,            1.,       -28.125,            0.,NA,NA,"",   24.6768E-03,  -21.1998E-03,   12.6299E-03,   11.7895E-03
C:/temp/dataset/test2/10_9.odb,Step-1,Increment      1: Step Time =    1.000,"PART-1-1",           190,           -1.,       -28.125,            0.,NA,NA,"",   22.9693E-03,  -19.8760E-03,  -11.5122E-03,   10.9084E-03
C:/temp/dataset/test2/10_9.odb,Step-1,Increment      1: Step Time =    1.000,"PART-1-1",           191,           -3.,       -28.125,            0.,NA,NA,"",   51.7180E-03,  -32.4493E-03,  -40.2715E-03,   28.1803E-03
C:/temp/dataset/test2/10_9.odb,Step-1,Increment      1: Step Time =    1.000,"PART-1-1",           192,           -5.,       -28.125,            0.,NA,NA,"",   102.923E-03,  -60.6332E-03,  -83.1672E-03,   47.0442E-03
C:/temp/dataset/test2/10_9.odb,Step-1,Increment      1: Step Time =    1.000,"PART-1-1",           193,            5.,          -30.,            0.,NA,NA,"",            0.,  -14.3832E-39,   25.6211E-39,   61.2186E-03
C:/temp/dataset/test2/10_9.odb,Step-1,Increment      1: Step Time =    1.000,"PART-1-1",           194,            3.,          -30.,            0.,NA,NA,"",            0.,  -17.5676E-39,   41.6342E-39,   19.9490E-03
C:/temp/dataset/test2/10_9.odb,Step-1,Increment      1: Step Time =    1.000,"PART-1-1",           195,            1.,          -30.,            0.,NA,NA,"",            0.,  -2.22286E-39,   13.2386E-39,   7.42372E-03
C:/temp/dataset/test2/10_9.odb,Step-1,Increment      1: Step Time =    1.000,"PART-1-1",           196,           -1.,          -30.,            0.,NA,NA,"",            0.,   6.21598E-39,  -12.0502E-39,   7.18154E-03
C:/temp/dataset/test2/10_9.odb,Step-1,Increment      1: Step Time =    1.000,"PART-1-1",           197,           -3.,          -30.,            0.,NA,NA,"",            0.,  -6.27569E-39,  -38.4213E-39,   19.1719E-03
C:/temp/dataset/test2/10_9.odb,Step-1,Increment      1: Step Time =    1.000,"PART-1-1",           198,           -5.,          -30.,            0.,NA,NA,"",            0.,  -13.5965E-39,  -24.5253E-39,   59.6075E-03
C:/temp/dataset/test2/10_9.odb,Step-1,Increment      1: Step Time =    1.000,"PART-1-1",           199,            4.,           30.,            0.,NA,NA,"",       5.85010,      -5.84832,   144.244E-03,   21.4236E-09
C:/temp/dataset/test2/10_9.odb,Step-1,Increment      1: Step Time =    1.000,"PART-1-1",           200,            3.,       29.0625,            0.,NA,NA,"",       5.74124,      -5.74109,   41.6116E-03,   21.7314E-09
C:/temp/dataset/test2/10_9.odb,Step-1,Increment      1: Step Time =    1.000,"PART-1-1",           201,            4.,        28.125,            0.,NA,NA,"",       5.64772,      -5.64558,   155.237E-03,   23.3443E-09
C:/temp/dataset/test2/10_9.odb,Step-1,Increment      1: Step Time =    1.000,"PART-1-1",           202,            5.,       29.0625,            0.,NA,NA,"",       5.75859,      -5.75282,   257.870E-03,   23.6401E-09
C:/temp/dataset/test2/10_9.odb,Step-1,Increment      1: Step Time =    1.000,"PART-1-1",           203,            2.,           30.,            0.,NA,NA,"",       5.83704,      -5.83660,  -72.0142E-03,   22.2368E-09
C:/temp/dataset/test2/10_9.odb,Step-1,Increment      1: Step Time =    1.000,"PART-1-1",           204,            1.,       29.0625,            0.,NA,NA,"",       5.73202,      -5.72936,  -174.647E-03,   22.1152E-09
C:/temp/dataset/test2/10_9.odb,Step-1,Increment      1: Step Time =    1.000,"PART-1-1",           205,            2.,        28.125,            0.,NA,NA,"",       5.63419,      -5.63386,  -61.0208E-03,   21.8181E-09
C:/temp/dataset/test2/10_9.odb,Step-1,Increment      1: Step Time =    1.000,"PART-1-1",           206,            0.,           30.,            0.,NA,NA,"",       5.83200,      -5.82487,  -288.272E-03,   23.7763E-09
C:/temp/dataset/test2/10_9.odb,Step-1,Increment      1: Step Time =    1.000,"PART-1-1",           207,           -1.,       29.0625,            0.,NA,NA,"",       5.73098,      -5.71764,  -390.905E-03,   22.5857E-09
C:/temp/dataset/test2/10_9.odb,Step-1,Increment      1: Step Time =    1.000,"PART-1-1",           208,            0.,        28.125,            0.,NA,NA,"",       5.62896,      -5.62213,  -277.279E-03,   21.1501E-09
C:/temp/dataset/test2/10_9.odb,Step-1,Increment      1: Step Time =    1.000,"PART-1-1",           209,           -2.,           30.,            0.,NA,NA,"",       5.83500,      -5.81314,  -504.530E-03,   24.2826E-09
C:/temp/dataset/test2/10_9.odb,Step-1,Increment      1: Step Time =    1.000,"PART-1-1",           210,           -3.,       29.0625,            0.,NA,NA,"",       5.73812,      -5.70591,  -607.163E-03,   22.7476E-09
C:/temp/dataset/test2/10_9.odb,Step-1,Increment      1: Step Time =    1.000,"PART-1-1",           211,           -2.,        28.125,            0.,NA,NA,"",       5.63207,      -5.61040,  -493.537E-03,   21.0700E-09
C:/temp/dataset/test2/10_9.odb,Step-1,Increment      1: Step Time =    1.000,"PART-1-1",           212,           -4.,           30.,            0.,NA,NA,"",       5.84602,      -5.80142,  -720.788E-03,   23.6115E-09
C:/temp/dataset/test2/10_9.odb,Step-1,Increment      1: Step Time =    1.000,"PART-1-1",           213,           -5.,       29.0625,            0.,NA,NA,"",       5.75341,      -5.69418,  -823.421E-03,   21.5599E-09
C:/temp/dataset/test2/10_9.odb,Step-1,Increment      1: Step Time =    1.000,"PART-1-1",           214,           -4.,        28.125,            0.,NA,NA,"",       5.64349,      -5.59868,  -709.795E-03,   21.2087E-09
C:/temp/dataset/test2/10_9.odb,Step-1,Increment      1: Step Time =    1.000,"PART-1-1",           215,            3.,       27.1875,            0.,NA,NA,"",       5.53860,      -5.53835,   52.6049E-03,   21.6244E-09
C:/temp/dataset/test2/10_9.odb,Step-1,Increment      1: Step Time =    1.000,"PART-1-1",           216,            4.,         26.25,            0.,NA,NA,"",       5.44538,      -5.44284,   166.231E-03,   24.1341E-09
C:/temp/dataset/test2/10_9.odb,Step-1,Increment      1: Step Time =    1.000,"PART-1-1",           217,            5.,       27.1875,            0.,NA,NA,"",       5.55658,      -5.55007,   268.863E-03,   25.8310E-09
C:/temp/dataset/test2/10_9.odb,Step-1,Increment      1: Step Time =    1.000,"PART-1-1",           218,            1.,       27.1875,            0.,NA,NA,"",       5.52904,      -5.52662,  -163.653E-03,   19.9526E-09
C:/temp/dataset/test2/10_9.odb,Step-1,Increment      1: Step Time =    1.000,"PART-1-1",           219,            2.,         26.25,            0.,NA,NA,"",       5.43134,      -5.43111,  -50.0274E-03,   19.9649E-09
C:/temp/dataset/test2/10_9.odb,Step-1,Increment      1: Step Time =    1.000,"PART-1-1",           220,           -1.,       27.1875,            0.,NA,NA,"",       5.52797,      -5.51489,  -379.911E-03,   19.5860E-09
C:/temp/dataset/test2/10_9.odb,Step-1,Increment      1: Step Time =    1.000,"PART-1-1",           221,            0.,         26.25,            0.,NA,NA,"",       5.42593,      -5.41939,  -266.286E-03,   18.7530E-09
C:/temp/dataset/test2/10_9.odb,Step-1,Increment      1: Step Time =    1.000,"PART-1-1",           222,           -3.,       27.1875,            0.,NA,NA,"",       5.53537,      -5.50317,  -596.169E-03,   19.8390E-09
C:/temp/dataset/test2/10_9.odb,Step-1,Increment      1: Step Time =    1.000,"PART-1-1",           223,           -2.,         26.25,            0.,NA,NA,"",       5.42915,      -5.40766,  -482.544E-03,   18.3770E-09
C:/temp/dataset/test2/10_9.odb,Step-1,Increment      1: Step Time =    1.000,"PART-1-1",           224,           -5.,       27.1875,            0.,NA,NA,"",       5.55121,      -5.49144,  -812.427E-03,   21.6887E-09
C:/temp/dataset/test2/10_9.odb,Step-1,Increment      1: Step Time =    1.000,"PART-1-1",           225,           -4.,         26.25,            0.,NA,NA,"",       5.44100,      -5.39593,  -698.802E-03,   20.1873E-09
C:/temp/dataset/test2/10_9.odb,Step-1,Increment      1: Step Time =    1.000,"PART-1-1",           226,            3.,       25.3125,            0.,NA,NA,"",       5.33598,      -5.33561,   63.5983E-03,   20.2527E-09
C:/temp/dataset/test2/10_9.odb,Step-1,Increment      1: Step Time =    1.000,"PART-1-1",           227,            4.,        24.375,            0.,NA,NA,"",       5.24309,      -5.24010,   177.224E-03,   23.3792E-09
C:/temp/dataset/test2/10_9.odb,Step-1,Increment      1: Step Time =    1.000,"PART-1-1",           228,            5.,       25.3125,            0.,NA,NA,"",       5.35465,      -5.34733,   279.856E-03,   27.3820E-09
C:/temp/dataset/test2/10_9.odb,Step-1,Increment      1: Step Time =    1.000,"PART-1-1",           229,            1.,       25.3125,            0.,NA,NA,"",       5.32607,      -5.32388,  -152.660E-03,   20.6414E-09
C:/temp/dataset/test2/10_9.odb,Step-1,Increment      1: Step Time =    1.000,"PART-1-1",           230,            2.,        24.375,            0.,NA,NA,"",       5.22852,      -5.22837,  -39.0341E-03,   22.5893E-09
C:/temp/dataset/test2/10_9.odb,Step-1,Increment      1: Step Time =    1.000,"PART-1-1",           231,           -1.,       25.3125,            0.,NA,NA,"",       5.32495,      -5.31215,  -368.918E-03,   20.7586E-09
C:/temp/dataset/test2/10_9.odb,Step-1,Increment      1: Step Time =    1.000,"PART-1-1",           232,            0.,        24.375,            0.,NA,NA,"",       5.22289,      -5.21664,  -255.292E-03,   24.2998E-09
C:/temp/dataset/test2/10_9.odb,Step-1,Increment      1: Step Time =    1.000,"PART-1-1",           233,           -3.,       25.3125,            0.,NA,NA,"",       5.33263,      -5.30043,  -585.176E-03,   18.2223E-09
C:/temp/dataset/test2/10_9.odb,Step-1,Increment      1: Step Time =    1.000,"PART-1-1",           234,           -2.,        24.375,            0.,NA,NA,"",       5.22624,      -5.20492,  -471.550E-03,   21.5834E-09
C:/temp/dataset/test2/10_9.odb,Step-1,Increment      1: Step Time =    1.000,"PART-1-1",           235,           -5.,       25.3125,            0.,NA,NA,"",       5.34908,      -5.28870,  -801.434E-03,   21.1206E-09
C:/temp/dataset/test2/10_9.odb,Step-1,Increment      1: Step Time =    1.000,"PART-1-1",           236,           -4.,        24.375,            0.,NA,NA,"",       5.23854,      -5.19319,  -687.808E-03,   18.3071E-09
C:/temp/dataset/test2/10_9.odb,Step-1,Increment      1: Step Time =    1.000,"PART-1-1",           237,            3.,       23.4375,            0.,NA,NA,"",       5.13341,      -5.13286,   74.5916E-03,   33.4390E-09
C:/temp/dataset/test2/10_9.odb,Step-1,Increment      1: Step Time =    1.000,"PART-1-1",           238,            4.,          22.5,            0.,NA,NA,"",       5.04087,      -5.03736,   188.217E-03,   29.0810E-09
C:/temp/dataset/test2/10_9.odb,Step-1,Increment      1: Step Time =    1.000,"PART-1-1",           239,            5.,       23.4375,            0.,NA,NA,"",       5.15280,      -5.14459,   290.850E-03,   22.6863E-09
C:/temp/dataset/test2/10_9.odb,Step-1,Increment      1: Step Time =    1.000,"PART-1-1",           240,            1.,       23.4375,            0.,NA,NA,"",       5.12310,      -5.12114,  -141.666E-03,   45.0434E-09
C:/temp/dataset/test2/10_9.odb,Step-1,Increment      1: Step Time =    1.000,"PART-1-1",           241,            2.,          22.5,            0.,NA,NA,"",       5.02571,      -5.02563,  -28.0408E-03,   53.6970E-09
C:/temp/dataset/test2/10_9.odb,Step-1,Increment      1: Step Time =    1.000,"PART-1-1",           242,           -1.,       23.4375,            0.,NA,NA,"",       5.12193,      -5.10941,  -357.925E-03,   45.3870E-09
C:/temp/dataset/test2/10_9.odb,Step-1,Increment      1: Step Time =    1.000,"PART-1-1",           243,            0.,          22.5,            0.,NA,NA,"",       5.01985,      -5.01390,  -244.299E-03,   61.1213E-09
C:/temp/dataset/test2/10_9.odb,Step-1,Increment      1: Step Time =    1.000,"PART-1-1",           244,           -3.,       23.4375,            0.,NA,NA,"",       5.12992,      -5.09768,  -574.183E-03,   34.3105E-09
C:/temp/dataset/test2/10_9.odb,Step-1,Increment      1: Step Time =    1.000,"PART-1-1",           245,           -2.,          22.5,            0.,NA,NA,"",       5.02333,      -5.00218,  -460.557E-03,   53.4362E-09
C:/temp/dataset/test2/10_9.odb,Step-1,Increment      1: Step Time =    1.000,"PART-1-1",           246,           -5.,       23.4375,            0.,NA,NA,"",       5.14702,      -5.08596,  -790.441E-03,   20.2435E-09
C:/temp/dataset/test2/10_9.odb,Step-1,Increment      1: Step Time =    1.000,"PART-1-1",           247,           -4.,          22.5,            0.,NA,NA,"",       5.03614,      -4.99045,  -676.815E-03,   29.9586E-09
C:/temp/dataset/test2/10_9.odb,Step-1,Increment      1: Step Time =    1.000,"PART-1-1",           248,            3.,       21.5625,            0.,NA,NA,"",       4.93086,      -4.93012,   85.5850E-03,   89.8126E-09
C:/temp/dataset/test2/10_9.odb,Step-1,Increment      1: Step Time =    1.000,"PART-1-1",           249,            4.,        20.625,            0.,NA,NA,"",       4.83872,      -4.83461,   199.211E-03,   78.5972E-09
C:/temp/dataset/test2/10_9.odb,Step-1,Increment      1: Step Time =    1.000,"PART-1-1",           250,            5.,       21.5625,            0.,NA,NA,"",       4.95106,      -4.94185,   301.843E-03,   38.1391E-09
C:/temp/dataset/test2/10_9.odb,Step-1,Increment      1: Step Time =    1.000,"PART-1-1",           251,            1.,       21.5625,            0.,NA,NA,"",       4.92013,      -4.91840,  -130.673E-03,   114.233E-09
C:/temp/dataset/test2/10_9.odb,Step-1,Increment      1: Step Time =    1.000,"PART-1-1",           252,            2.,        20.625,            0.,NA,NA,"",       4.82292,      -4.82289,  -17.0475E-03,   133.440E-09
C:/temp/dataset/test2/10_9.odb,Step-1,Increment      1: Step Time =    1.000,"PART-1-1",           253,           -1.,       21.5625,            0.,NA,NA,"",       4.91892,      -4.90667,  -346.931E-03,   114.082E-09
C:/temp/dataset/test2/10_9.odb,Step-1,Increment      1: Step Time =    1.000,"PART-1-1",           254,            0.,        20.625,            0.,NA,NA,"",       4.81681,      -4.81116,  -233.306E-03,   148.505E-09
C:/temp/dataset/test2/10_9.odb,Step-1,Increment      1: Step Time =    1.000,"PART-1-1",           255,           -3.,       21.5625,            0.,NA,NA,"",       4.92723,      -4.89494,  -563.189E-03,   92.3551E-09
C:/temp/dataset/test2/10_9.odb,Step-1,Increment      1: Step Time =    1.000,"PART-1-1",           256,           -2.,        20.625,            0.,NA,NA,"",       4.82044,      -4.79943,  -449.564E-03,   132.904E-09
C:/temp/dataset/test2/10_9.odb,Step-1,Increment      1: Step Time =    1.000,"PART-1-1",           257,           -5.,       21.5625,            0.,NA,NA,"",       4.94503,      -4.88322,  -779.447E-03,   53.6514E-09
C:/temp/dataset/test2/10_9.odb,Step-1,Increment      1: Step Time =    1.000,"PART-1-1",           258,           -4.,        20.625,            0.,NA,NA,"",       4.83378,      -4.78771,  -665.821E-03,   86.6042E-09
C:/temp/dataset/test2/10_9.odb,Step-1,Increment      1: Step Time =    1.000,"PART-1-1",           259,            3.,       19.6875,            0.,NA,NA,"",       4.72837,      -4.72738,   96.5783E-03,   209.383E-09
C:/temp/dataset/test2/10_9.odb,Step-1,Increment      1: Step Time =    1.000,"PART-1-1",           260,            4.,         18.75,            0.,NA,NA,"",       4.63664,      -4.63187,   210.204E-03,   203.864E-09
C:/temp/dataset/test2/10_9.odb,Step-1,Increment      1: Step Time =    1.000,"PART-1-1",           261,            5.,       19.6875,            0.,NA,NA,"",       4.74942,      -4.73911,   312.836E-03,   149.176E-09
C:/temp/dataset/test2/10_9.odb,Step-1,Increment      1: Step Time =    1.000,"PART-1-1",           262,            1.,       19.6875,            0.,NA,NA,"",       4.71717,      -4.71565,  -119.680E-03,   247.259E-09
C:/temp/dataset/test2/10_9.odb,Step-1,Increment      1: Step Time =    1.000,"PART-1-1",           263,            2.,         18.75,            0.,NA,NA,"",       4.62015,      -4.62015,  -6.05433E-03,   278.385E-09
C:/temp/dataset/test2/10_9.odb,Step-1,Increment      1: Step Time =    1.000,"PART-1-1",           264,           -1.,       19.6875,            0.,NA,NA,"",       4.71591,      -4.70393,  -335.938E-03,   246.321E-09
C:/temp/dataset/test2/10_9.odb,Step-1,Increment      1: Step Time =    1.000,"PART-1-1",           265,            0.,         18.75,            0.,NA,NA,"",       4.61378,      -4.60842,  -222.313E-03,   304.768E-09
C:/temp/dataset/test2/10_9.odb,Step-1,Increment      1: Step Time =    1.000,"PART-1-1",           266,           -3.,       19.6875,            0.,NA,NA,"",       4.72458,      -4.69220,  -552.196E-03,   212.385E-09
C:/temp/dataset/test2/10_9.odb,Step-1,Increment      1: Step Time =    1.000,"PART-1-1",           267,           -2.,         18.75,            0.,NA,NA,"",       4.61757,      -4.59669,  -438.570E-03,   277.009E-09
C:/temp/dataset/test2/10_9.odb,Step-1,Increment      1: Step Time =    1.000,"PART-1-1",           268,           -5.,       19.6875,            0.,NA,NA,"",       4.74314,      -4.68047,  -768.454E-03,   170.779E-09
C:/temp/dataset/test2/10_9.odb,Step-1,Increment      1: Step Time =    1.000,"PART-1-1",           269,           -4.,         18.75,            0.,NA,NA,"",       4.63149,      -4.58497,  -654.828E-03,   216.186E-09
C:/temp/dataset/test2/10_9.odb,Step-1,Increment      1: Step Time =    1.000,"PART-1-1",           270,            3.,       17.8125,            0.,NA,NA,"",       4.52592,      -4.52464,   107.572E-03,   400.977E-09
C:/temp/dataset/test2/10_9.odb,Step-1,Increment      1: Step Time =    1.000,"PART-1-1",           271,            4.,        16.875,            0.,NA,NA,"",       4.43465,      -4.42913,   221.198E-03,   434.818E-09
C:/temp/dataset/test2/10_9.odb,Step-1,Increment      1: Step Time =    1.000,"PART-1-1",           272,            5.,       17.8125,            0.,NA,NA,"",       4.54791,      -4.53636,   323.830E-03,   410.128E-09
C:/temp/dataset/test2/10_9.odb,Step-1,Increment      1: Step Time =    1.000,"PART-1-1",           273,            1.,       17.8125,            0.,NA,NA,"",       4.51422,      -4.51291,  -108.687E-03,   443.827E-09
C:/temp/dataset/test2/10_9.odb,Step-1,Increment      1: Step Time =    1.000,"PART-1-1",           274,            2.,        16.875,            0.,NA,NA,"",       4.41741,      -4.41740,   4.93868E-03,   471.944E-09
C:/temp/dataset/test2/10_9.odb,Step-1,Increment      1: Step Time =    1.000,"PART-1-1",           275,           -1.,       17.8125,            0.,NA,NA,"",       4.51290,      -4.50118,  -324.945E-03,   441.706E-09
C:/temp/dataset/test2/10_9.odb,Step-1,Increment      1: Step Time =    1.000,"PART-1-1",           276,            0.,        16.875,            0.,NA,NA,"",       4.41074,      -4.40568,  -211.320E-03,   512.985E-09
C:/temp/dataset/test2/10_9.odb,Step-1,Increment      1: Step Time =    1.000,"PART-1-1",           277,           -3.,       17.8125,            0.,NA,NA,"",       4.52196,      -4.48946,  -541.202E-03,   403.660E-09
C:/temp/dataset/test2/10_9.odb,Step-1,Increment      1: Step Time =    1.000,"PART-1-1",           278,           -2.,        16.875,            0.,NA,NA,"",       4.41471,      -4.39395,  -427.577E-03,   468.972E-09
C:/temp/dataset/test2/10_9.odb,Step-1,Increment      1: Step Time =    1.000,"PART-1-1",           279,           -5.,       17.8125,            0.,NA,NA,"",       4.54135,      -4.47773,  -757.460E-03,   435.568E-09
C:/temp/dataset/test2/10_9.odb,Step-1,Increment      1: Step Time =    1.000,"PART-1-1",           280,           -4.,        16.875,            0.,NA,NA,"",       4.42927,      -4.38222,  -643.834E-03,   450.730E-09
C:/temp/dataset/test2/10_9.odb,Step-1,Increment      1: Step Time =    1.000,"PART-1-1",           281,            3.,       15.9375,            0.,NA,NA,"",       4.32352,      -4.32190,   118.565E-03,   589.995E-09
C:/temp/dataset/test2/10_9.odb,Step-1,Increment      1: Step Time =    1.000,"PART-1-1",           282,            4.,           15.,            0.,NA,NA,"",       4.23276,      -4.22639,   232.192E-03,   754.029E-09
C:/temp/dataset/test2/10_9.odb,Step-1,Increment      1: Step Time =    1.000,"PART-1-1",           283,            5.,       15.9375,            0.,NA,NA,"",       4.34654,      -4.33362,   334.825E-03,   896.381E-09
C:/temp/dataset/test2/10_9.odb,Step-1,Increment      1: Step Time =    1.000,"PART-1-1",           284,            1.,       15.9375,            0.,NA,NA,"",       4.31128,      -4.31017,  -97.6945E-03,   611.802E-09
C:/temp/dataset/test2/10_9.odb,Step-1,Increment      1: Step Time =    1.000,"PART-1-1",           285,            2.,           15.,            0.,NA,NA,"",       4.21469,      -4.21466,   15.9315E-03,   571.230E-09
C:/temp/dataset/test2/10_9.odb,Step-1,Increment      1: Step Time =    1.000,"PART-1-1",           286,           -1.,       15.9375,            0.,NA,NA,"",       4.30989,      -4.29844,  -313.952E-03,   607.431E-09
C:/temp/dataset/test2/10_9.odb,Step-1,Increment      1: Step Time =    1.000,"PART-1-1",           287,            0.,           15.,            0.,NA,NA,"",       4.20771,      -4.20294,  -200.328E-03,   647.150E-09
C:/temp/dataset/test2/10_9.odb,Step-1,Increment      1: Step Time =    1.000,"PART-1-1",           288,           -3.,       15.9375,            0.,NA,NA,"",       4.31938,      -4.28672,  -530.209E-03,   590.558E-09
C:/temp/dataset/test2/10_9.odb,Step-1,Increment      1: Step Time =    1.000,"PART-1-1",           289,           -2.,           15.,            0.,NA,NA,"",       4.21186,      -4.19121,  -416.584E-03,   564.857E-09
C:/temp/dataset/test2/10_9.odb,Step-1,Increment      1: Step Time =    1.000,"PART-1-1",           290,           -5.,       15.9375,            0.,NA,NA,"",       4.33967,      -4.27499,  -746.466E-03,   924.076E-09
C:/temp/dataset/test2/10_9.odb,Step-1,Increment      1: Step Time =    1.000,"PART-1-1",           291,           -4.,           15.,            0.,NA,NA,"",       4.22712,      -4.17948,  -632.840E-03,   772.801E-09
C:/temp/dataset/test2/10_9.odb,Step-1,Increment      1: Step Time =    1.000,"PART-1-1",           292,            3.,       14.0625,            0.,NA,NA,"",       4.12119,      -4.11915,   129.559E-03,   458.935E-09
C:/temp/dataset/test2/10_9.odb,Step-1,Increment      1: Step Time =    1.000,"PART-1-1",           293,            4.,        13.125,            0.,NA,NA,"",       4.03099,      -4.02364,   243.187E-03,   976.988E-09
C:/temp/dataset/test2/10_9.odb,Step-1,Increment      1: Step Time =    1.000,"PART-1-1",           294,            5.,       14.0625,            0.,NA,NA,"",       4.14533,      -4.13088,   345.820E-03,   1.57820E-06
C:/temp/dataset/test2/10_9.odb,Step-1,Increment      1: Step Time =    1.000,"PART-1-1",           295,            1.,       14.0625,            0.,NA,NA,"",       4.10834,      -4.10743,  -86.7020E-03,   664.359E-09
C:/temp/dataset/test2/10_9.odb,Step-1,Increment      1: Step Time =    1.000,"PART-1-1",           296,            2.,        13.125,            0.,NA,NA,"",       4.01201,      -4.01192,   26.9246E-03,   630.317E-09
C:/temp/dataset/test2/10_9.odb,Step-1,Increment      1: Step Time =    1.000,"PART-1-1",           297,           -1.,       14.0625,            0.,NA,NA,"",       4.10689,      -4.09570,  -302.960E-03,   657.784E-09
C:/temp/dataset/test2/10_9.odb,Step-1,Increment      1: Step Time =    1.000,"PART-1-1",           298,            0.,        13.125,            0.,NA,NA,"",       4.00467,      -4.00019,  -189.335E-03,   975.709E-09
C:/temp/dataset/test2/10_9.odb,Step-1,Increment      1: Step Time =    1.000,"PART-1-1",           299,           -3.,       14.0625,            0.,NA,NA,"",       4.11685,      -4.08398,  -519.216E-03,   453.792E-09
C:/temp/dataset/test2/10_9.odb,Step-1,Increment      1: Step Time =    1.000,"PART-1-1",           300,           -2.,        13.125,            0.,NA,NA,"",       4.00904,      -3.98847,  -405.592E-03,   627.942E-09
C:/temp/dataset/test2/10_9.odb,Step-1,Increment      1: Step Time =    1.000,"PART-1-1",           301,           -5.,       14.0625,            0.,NA,NA,"",       4.13813,      -4.07225,  -735.470E-03,   1.60248E-06
C:/temp/dataset/test2/10_9.odb,Step-1,Increment      1: Step Time =    1.000,"PART-1-1",           302,           -4.,        13.125,            0.,NA,NA,"",       4.02507,      -3.97674,  -621.846E-03,   997.907E-09
C:/temp/dataset/test2/10_9.odb,Step-1,Increment      1: Step Time =    1.000,"PART-1-1",           303,            3.,       12.1875,            0.,NA,NA,"",       3.91893,      -3.91641,   140.552E-03,   1.37021E-06
C:/temp/dataset/test2/10_9.odb,Step-1,Increment      1: Step Time =    1.000,"PART-1-1",           304,            4.,         11.25,            0.,NA,NA,"",       3.82934,      -3.82089,   254.182E-03,   1.31451E-06
C:/temp/dataset/test2/10_9.odb,Step-1,Increment      1: Step Time =    1.000,"PART-1-1",           305,            5.,       12.1875,            0.,NA,NA,"",       3.94431,      -3.92813,   356.818E-03,   1.95399E-06
C:/temp/dataset/test2/10_9.odb,Step-1,Increment      1: Step Time =    1.000,"PART-1-1",           306,            1.,       12.1875,            0.,NA,NA,"",       3.90542,      -3.90468,  -75.7084E-03,   2.64445E-06
C:/temp/dataset/test2/10_9.odb,Step-1,Increment      1: Step Time =    1.000,"PART-1-1",           307,            2.,         11.25,            0.,NA,NA,"",       3.80936,      -3.80917,   37.9191E-03,   3.47516E-06
C:/temp/dataset/test2/10_9.odb,Step-1,Increment      1: Step Time =    1.000,"PART-1-1",           308,           -1.,       12.1875,            0.,NA,NA,"",       3.90389,      -3.89296,  -291.967E-03,   2.64562E-06
C:/temp/dataset/test2/10_9.odb,Step-1,Increment      1: Step Time =    1.000,"PART-1-1",           309,            0.,         11.25,            0.,NA,NA,"",       3.80164,      -3.79745,  -178.340E-03,   4.23045E-06
C:/temp/dataset/test2/10_9.odb,Step-1,Increment      1: Step Time =    1.000,"PART-1-1",           310,           -3.,       12.1875,            0.,NA,NA,"",       3.91437,      -3.88124,  -508.223E-03,   1.38114E-06
C:/temp/dataset/test2/10_9.odb,Step-1,Increment      1: Step Time =    1.000,"PART-1-1",           311,           -2.,         11.25,            0.,NA,NA,"",       3.80624,      -3.78573,  -394.598E-03,   3.49026E-06
C:/temp/dataset/test2/10_9.odb,Step-1,Increment      1: Step Time =    1.000,"PART-1-1",           312,           -5.,       12.1875,            0.,NA,NA,"",       3.93675,      -3.86951,  -724.474E-03,   1.96094E-06
C:/temp/dataset/test2/10_9.odb,Step-1,Increment      1: Step Time =    1.000,"PART-1-1",           313,           -4.,         11.25,            0.,NA,NA,"",       3.82313,      -3.77401,  -610.852E-03,   1.35108E-06
C:/temp/dataset/test2/10_9.odb,Step-1,Increment      1: Step Time =    1.000,"PART-1-1",           314,            3.,       10.3125,            0.,NA,NA,"",       3.71674,      -3.71365,   151.547E-03,   7.10053E-06
C:/temp/dataset/test2/10_9.odb,Step-1,Increment      1: Step Time =    1.000,"PART-1-1",           315,            4.,         9.375,            0.,NA,NA,"",       3.62784,      -3.61813,   265.176E-03,   5.83915E-06
C:/temp/dataset/test2/10_9.odb,Step-1,Increment      1: Step Time =    1.000,"PART-1-1",           316,            5.,       10.3125,            0.,NA,NA,"",       3.74349,      -3.72538,   367.816E-03,   409.392E-09
C:/temp/dataset/test2/10_9.odb,Step-1,Increment      1: Step Time =    1.000,"PART-1-1",           317,            1.,       10.3125,            0.,NA,NA,"",       3.70250,      -3.70194,  -64.7104E-03,   9.89333E-06
C:/temp/dataset/test2/10_9.odb,Step-1,Increment      1: Step Time =    1.000,"PART-1-1",           318,            2.,         9.375,            0.,NA,NA,"",       3.60675,      -3.60641,   48.9186E-03,   12.3646E-06
C:/temp/dataset/test2/10_9.odb,Step-1,Increment      1: Step Time =    1.000,"PART-1-1",           319,           -1.,       10.3125,            0.,NA,NA,"",       3.70091,      -3.69023,  -280.970E-03,   9.86881E-06
C:/temp/dataset/test2/10_9.odb,Step-1,Increment      1: Step Time =    1.000,"PART-1-1",           320,            0.,         9.375,            0.,NA,NA,"",       3.59860,      -3.59471,  -167.336E-03,   14.0699E-06
C:/temp/dataset/test2/10_9.odb,Step-1,Increment      1: Step Time =    1.000,"PART-1-1",           321,           -3.,       10.3125,            0.,NA,NA,"",       3.71196,      -3.67851,  -497.231E-03,   7.08078E-06
C:/temp/dataset/test2/10_9.odb,Step-1,Increment      1: Step Time =    1.000,"PART-1-1",           322,           -2.,         9.375,            0.,NA,NA,"",       3.60348,      -3.58301,  -383.602E-03,   12.3506E-06
C:/temp/dataset/test2/10_9.odb,Step-1,Increment      1: Step Time =    1.000,"PART-1-1",           323,           -5.,       10.3125,            0.,NA,NA,"",       3.73555,      -3.66678,  -713.478E-03,   410.476E-09
C:/temp/dataset/test2/10_9.odb,Step-1,Increment      1: Step Time =    1.000,"PART-1-1",           324,           -4.,         9.375,            0.,NA,NA,"",       3.62132,      -3.57129,  -599.863E-03,   5.84471E-06
C:/temp/dataset/test2/10_9.odb,Step-1,Increment      1: Step Time =    1.000,"PART-1-1",           325,            3.,        8.4375,            0.,NA,NA,"",       3.51464,      -3.51088,   162.543E-03,   22.2359E-06
C:/temp/dataset/test2/10_9.odb,Step-1,Increment      1: Step Time =    1.000,"PART-1-1",           326,            4.,           7.5,            0.,NA,NA,"",       3.42650,      -3.41535,   276.162E-03,   20.0980E-06
C:/temp/dataset/test2/10_9.odb,Step-1,Increment      1: Step Time =    1.000,"PART-1-1",           327,            5.,        8.4375,            0.,NA,NA,"",       3.54292,      -3.52261,   378.811E-03,   9.14723E-06
C:/temp/dataset/test2/10_9.odb,Step-1,Increment      1: Step Time =    1.000,"PART-1-1",           328,            1.,        8.4375,            0.,NA,NA,"",       3.49959,      -3.49918,  -53.6988E-03,   27.8184E-06
C:/temp/dataset/test2/10_9.odb,Step-1,Increment      1: Step Time =    1.000,"PART-1-1",           329,            2.,           7.5,            0.,NA,NA,"",       3.40417,      -3.40364,   59.9311E-03,   33.4824E-06
C:/temp/dataset/test2/10_9.odb,Step-1,Increment      1: Step Time =    1.000,"PART-1-1",           330,           -1.,        8.4375,            0.,NA,NA,"",       3.49793,      -3.48750,  -269.961E-03,   27.6100E-06
C:/temp/dataset/test2/10_9.odb,Step-1,Increment      1: Step Time =    1.000,"PART-1-1",           331,            0.,           7.5,            0.,NA,NA,"",       3.39557,      -3.39197,  -156.308E-03,   36.9284E-06
C:/temp/dataset/test2/10_9.odb,Step-1,Increment      1: Step Time =    1.000,"PART-1-1",           332,           -3.,        8.4375,            0.,NA,NA,"",       3.50964,      -3.47579,  -486.241E-03,   21.9178E-06
C:/temp/dataset/test2/10_9.odb,Step-1,Increment      1: Step Time =    1.000,"PART-1-1",           333,           -2.,           7.5,            0.,NA,NA,"",       3.40077,      -3.38030,  -372.597E-03,   33.0455E-06
C:/temp/dataset/test2/10_9.odb,Step-1,Increment      1: Step Time =    1.000,"PART-1-1",           334,           -5.,        8.4375,            0.,NA,NA,"",       3.53458,      -3.46407,  -702.489E-03,   9.10782E-06
C:/temp/dataset/test2/10_9.odb,Step-1,Increment      1: Step Time =    1.000,"PART-1-1",           335,           -4.,           7.5,            0.,NA,NA,"",       3.41967,      -3.36858,  -588.886E-03,   19.8835E-06
C:/temp/dataset/test2/10_9.odb,Step-1,Increment      1: Step Time =    1.000,"PART-1-1",           336,            3.,        6.5625,            0.,NA,NA,"",       3.31263,      -3.30808,   173.541E-03,   55.8585E-06
C:/temp/dataset/test2/10_9.odb,Step-1,Increment      1: Step Time =    1.000,"PART-1-1",           337,            4.,         5.625,            0.,NA,NA,"",       3.22534,      -3.21253,   287.121E-03,   54.6001E-06
C:/temp/dataset/test2/10_9.odb,Step-1,Increment      1: Step Time =    1.000,"PART-1-1",           338,            5.,        6.5625,            0.,NA,NA,"",       3.34262,      -3.31982,   389.783E-03,   37.4206E-06
C:/temp/dataset/test2/10_9.odb,Step-1,Increment      1: Step Time =    1.000,"PART-1-1",           339,            1.,        6.5625,            0.,NA,NA,"",       3.29670,      -3.29642,  -42.6549E-03,   64.8710E-06
C:/temp/dataset/test2/10_9.odb,Step-1,Increment      1: Step Time =    1.000,"PART-1-1",           340,            2.,         5.625,            0.,NA,NA,"",       3.20163,      -3.20084,   70.9724E-03,   75.2674E-06
C:/temp/dataset/test2/10_9.odb,Step-1,Increment      1: Step Time =    1.000,"PART-1-1",           341,           -1.,        6.5625,            0.,NA,NA,"",       3.29498,      -3.28479,  -258.924E-03,   63.6229E-06
C:/temp/dataset/test2/10_9.odb,Step-1,Increment      1: Step Time =    1.000,"PART-1-1",           342,            0.,         5.625,            0.,NA,NA,"",       3.19255,      -3.18924,  -145.230E-03,   81.1341E-06
C:/temp/dataset/test2/10_9.odb,Step-1,Increment      1: Step Time =    1.000,"PART-1-1",           343,           -3.,        6.5625,            0.,NA,NA,"",       3.30743,      -3.27311,  -475.255E-03,   53.3942E-06
C:/temp/dataset/test2/10_9.odb,Step-1,Increment      1: Step Time =    1.000,"PART-1-1",           344,           -2.,         5.625,            0.,NA,NA,"",       3.19813,      -3.17762,  -361.572E-03,   72.8562E-06
C:/temp/dataset/test2/10_9.odb,Step-1,Increment      1: Step Time =    1.000,"PART-1-1",           345,           -5.,        6.5625,            0.,NA,NA,"",       3.33388,      -3.26137,  -691.527E-03,   36.5200E-06
C:/temp/dataset/test2/10_9.odb,Step-1,Increment      1: Step Time =    1.000,"PART-1-1",           346,           -4.,         5.625,            0.,NA,NA,"",       3.21822,      -3.16590,  -577.940E-03,   52.4835E-06
C:/temp/dataset/test2/10_9.odb,Step-1,Increment      1: Step Time =    1.000,"PART-1-1",           347,            3.,        4.6875,            0.,NA,NA,"",       3.11073,      -3.10525,   184.541E-03,   117.022E-06
C:/temp/dataset/test2/10_9.odb,Step-1,Increment      1: Step Time =    1.000,"PART-1-1",           348,            4.,          3.75,            0.,NA,NA,"",       3.02441,      -3.00969,   298.020E-03,   124.925E-06
C:/temp/dataset/test2/10_9.odb,Step-1,Increment      1: Step Time =    1.000,"PART-1-1",           349,            5.,        4.6875,            0.,NA,NA,"",       3.14265,      -3.11700,   400.685E-03,   109.738E-06
C:/temp/dataset/test2/10_9.odb,Step-1,Increment      1: Step Time =    1.000,"PART-1-1",           350,            1.,        4.6875,            0.,NA,NA,"",       3.09382,      -3.09366,  -31.5460E-03,   127.486E-06
C:/temp/dataset/test2/10_9.odb,Step-1,Increment      1: Step Time =    1.000,"PART-1-1",           351,            2.,          3.75,            0.,NA,NA,"",       2.99917,      -2.99804,   82.0690E-03,   143.706E-06
C:/temp/dataset/test2/10_9.odb,Step-1,Increment      1: Step Time =    1.000,"PART-1-1",           352,           -1.,        4.6875,            0.,NA,NA,"",       3.09205,      -3.08210,  -247.831E-03,   122.268E-06
C:/temp/dataset/test2/10_9.odb,Step-1,Increment      1: Step Time =    1.000,"PART-1-1",           353,            0.,          3.75,            0.,NA,NA,"",       2.98954,      -2.98653,  -134.061E-03,   149.027E-06
C:/temp/dataset/test2/10_9.odb,Step-1,Increment      1: Step Time =    1.000,"PART-1-1",           354,           -3.,        4.6875,            0.,NA,NA,"",       3.10535,      -3.07045,  -464.278E-03,   107.049E-06
C:/temp/dataset/test2/10_9.odb,Step-1,Increment      1: Step Time =    1.000,"PART-1-1",           355,           -2.,          3.75,            0.,NA,NA,"",       2.99554,      -2.97496,  -350.510E-03,   132.071E-06
C:/temp/dataset/test2/10_9.odb,Step-1,Increment      1: Step Time =    1.000,"PART-1-1",           356,           -5.,        4.6875,            0.,NA,NA,"",       3.13349,      -3.05867,  -680.634E-03,   101.060E-06
C:/temp/dataset/test2/10_9.odb,Step-1,Increment      1: Step Time =    1.000,"PART-1-1",           357,           -4.,          3.75,            0.,NA,NA,"",       3.01700,      -2.96323,  -567.057E-03,   114.466E-06
C:/temp/dataset/test2/10_9.odb,Step-1,Increment      1: Step Time =    1.000,"PART-1-1",           358,            3.,        2.8125,            0.,NA,NA,"",       2.90901,      -2.90243,   195.545E-03,   209.258E-06
C:/temp/dataset/test2/10_9.odb,Step-1,Increment      1: Step Time =    1.000,"PART-1-1",           359,            4.,         1.875,            0.,NA,NA,"",       2.82385,      -2.80692,   308.775E-03,   243.995E-06
C:/temp/dataset/test2/10_9.odb,Step-1,Increment      1: Step Time =    1.000,"PART-1-1",           360,            5.,        2.8125,            0.,NA,NA,"",       2.94312,      -2.91422,   411.415E-03,   259.920E-06
C:/temp/dataset/test2/10_9.odb,Step-1,Increment      1: Step Time =    1.000,"PART-1-1",           361,            1.,        2.8125,            0.,NA,NA,"",       2.89100,      -2.89092,  -20.3306E-03,   202.845E-06
C:/temp/dataset/test2/10_9.odb,Step-1,Increment      1: Step Time =    1.000,"PART-1-1",           362,            2.,         1.875,            0.,NA,NA,"",       2.79688,      -2.79533,   93.2515E-03,   213.098E-06
C:/temp/dataset/test2/10_9.odb,Step-1,Increment      1: Step Time =    1.000,"PART-1-1",           363,           -1.,        2.8125,            0.,NA,NA,"",       2.88914,      -2.87943,  -236.650E-03,   186.513E-06
C:/temp/dataset/test2/10_9.odb,Step-1,Increment      1: Step Time =    1.000,"PART-1-1",           364,            0.,         1.875,            0.,NA,NA,"",       2.78656,      -2.78385,  -122.776E-03,   214.031E-06
C:/temp/dataset/test2/10_9.odb,Step-1,Increment      1: Step Time =    1.000,"PART-1-1",           365,           -3.,        2.8125,            0.,NA,NA,"",       2.90337,      -2.86777,  -453.313E-03,   169.301E-06
C:/temp/dataset/test2/10_9.odb,Step-1,Increment      1: Step Time =    1.000,"PART-1-1",           366,           -2.,         1.875,            0.,NA,NA,"",       2.79295,      -2.77225,  -339.399E-03,   180.291E-06
C:/temp/dataset/test2/10_9.odb,Step-1,Increment      1: Step Time =    1.000,"PART-1-1",           367,           -5.,        2.8125,            0.,NA,NA,"",       2.93342,      -2.85591,  -669.887E-03,   223.757E-06
C:/temp/dataset/test2/10_9.odb,Step-1,Increment      1: Step Time =    1.000,"PART-1-1",           368,           -4.,         1.875,            0.,NA,NA,"",       2.81593,      -2.76043,  -556.274E-03,   206.038E-06
C:/temp/dataset/test2/10_9.odb,Step-1,Increment      1: Step Time =    1.000,"PART-1-1",           369,            3.,     937.5E-03,            0.,NA,NA,"",       2.70772,      -2.69983,   206.542E-03,   254.328E-06
C:/temp/dataset/test2/10_9.odb,Step-1,Increment      1: Step Time =    1.000,"PART-1-1",           370,            4.,            0.,            0.,NA,NA,"",       2.62411,      -2.60461,   319.335E-03,   387.852E-06
C:/temp/dataset/test2/10_9.odb,Step-1,Increment      1: Step Time =    1.000,"PART-1-1",           371,            5.,     937.5E-03,            0.,NA,NA,"",       2.74424,      -2.71164,   421.724E-03,   563.082E-06
C:/temp/dataset/test2/10_9.odb,Step-1,Increment      1: Step Time =    1.000,"PART-1-1",           372,            1.,     937.5E-03,            0.,NA,NA,"",       2.68834,      -2.68833,  -9.00733E-03,   238.976E-06
C:/temp/dataset/test2/10_9.odb,Step-1,Increment      1: Step Time =    1.000,"PART-1-1",           373,            2.,            0.,            0.,NA,NA,"",       2.59508,      -2.59298,   104.509E-03,   218.419E-06
C:/temp/dataset/test2/10_9.odb,Step-1,Increment      1: Step Time =    1.000,"PART-1-1",           374,           -1.,     937.5E-03,            0.,NA,NA,"",       2.68616,      -2.67669,  -225.396E-03,   193.319E-06
C:/temp/dataset/test2/10_9.odb,Step-1,Increment      1: Step Time =    1.000,"PART-1-1",           375,            0.,            0.,            0.,NA,NA,"",       2.58360,      -2.58119,  -111.472E-03,   247.520E-06
C:/temp/dataset/test2/10_9.odb,Step-1,Increment      1: Step Time =    1.000,"PART-1-1",           376,           -3.,     937.5E-03,            0.,NA,NA,"",       2.70135,      -2.66489,  -442.363E-03,   172.319E-06
C:/temp/dataset/test2/10_9.odb,Step-1,Increment      1: Step Time =    1.000,"PART-1-1",           377,           -2.,            0.,            0.,NA,NA,"",       2.59011,      -2.56923,  -328.267E-03,   149.075E-06
C:/temp/dataset/test2/10_9.odb,Step-1,Increment      1: Step Time =    1.000,"PART-1-1",           378,           -5.,     937.5E-03,            0.,NA,NA,"",       2.73359,      -2.65287,  -659.386E-03,   399.023E-06
C:/temp/dataset/test2/10_9.odb,Step-1,Increment      1: Step Time =    1.000,"PART-1-1",           379,           -4.,            0.,            0.,NA,NA,"",       2.61477,      -2.55722,  -545.589E-03,   288.626E-06
C:/temp/dataset/test2/10_9.odb,Step-1,Increment      1: Step Time =    1.000,"PART-1-1",           380,            3.,    -937.5E-03,            0.,NA,NA,"",       2.50752,      -2.49807,   217.587E-03,   314.384E-06
C:/temp/dataset/test2/10_9.odb,Step-1,Increment      1: Step Time =    1.000,"PART-1-1",           381,            4.,        -1.875,            0.,NA,NA,"",       2.42646,      -2.40399,   329.477E-03,   683.426E-06
C:/temp/dataset/test2/10_9.odb,Step-1,Increment      1: Step Time =    1.000,"PART-1-1",           382,            5.,    -937.5E-03,            0.,NA,NA,"",       2.54676,      -2.50998,   431.285E-03,   926.604E-06
C:/temp/dataset/test2/10_9.odb,Step-1,Increment      1: Step Time =    1.000,"PART-1-1",           383,            1.,    -937.5E-03,            0.,NA,NA,"",       2.48602,      -2.48601,   2.21112E-03,   553.683E-06
C:/temp/dataset/test2/10_9.odb,Step-1,Increment      1: Step Time =    1.000,"PART-1-1",           384,            2.,        -1.875,            0.,NA,NA,"",       2.39440,      -2.39161,   115.471E-03,   977.961E-06
C:/temp/dataset/test2/10_9.odb,Step-1,Increment      1: Step Time =    1.000,"PART-1-1",           385,           -1.,    -937.5E-03,            0.,NA,NA,"",       2.48283,      -2.47357,  -214.233E-03,   408.831E-06
C:/temp/dataset/test2/10_9.odb,Step-1,Increment      1: Step Time =    1.000,"PART-1-1",           386,            0.,        -1.875,            0.,NA,NA,"",       2.38034,      -2.37821,  -100.579E-03,   847.143E-06
C:/temp/dataset/test2/10_9.odb,Step-1,Increment      1: Step Time =    1.000,"PART-1-1",           387,           -3.,    -937.5E-03,            0.,NA,NA,"",       2.49885,      -2.46134,  -431.394E-03,   136.888E-06
C:/temp/dataset/test2/10_9.odb,Step-1,Increment      1: Step Time =    1.000,"PART-1-1",           388,           -2.,        -1.875,            0.,NA,NA,"",       2.38642,      -2.36524,  -317.188E-03,   538.207E-06
C:/temp/dataset/test2/10_9.odb,Step-1,Increment      1: Step Time =    1.000,"PART-1-1",           389,           -5.,    -937.5E-03,            0.,NA,NA,"",       2.53370,      -2.44912,  -649.154E-03,   531.219E-06
C:/temp/dataset/test2/10_9.odb,Step-1,Increment      1: Step Time =    1.000,"PART-1-1",           390,           -4.,        -1.875,            0.,NA,NA,"",       2.41298,      -2.35295,  -534.847E-03,   312.253E-06
C:/temp/dataset/test2/10_9.odb,Step-1,Increment      1: Step Time =    1.000,"PART-1-1",           391,            3.,       -2.8125,            0.,NA,NA,"",       2.31042,      -2.29914,   228.016E-03,   2.64173E-03
C:/temp/dataset/test2/10_9.odb,Step-1,Increment      1: Step Time =    1.000,"PART-1-1",           392,            4.,         -3.75,            0.,NA,NA,"",       2.23572,      -2.20975,   339.784E-03,   5.19822E-03
C:/temp/dataset/test2/10_9.odb,Step-1,Increment      1: Step Time =    1.000,"PART-1-1",           393,            5.,       -2.8125,            0.,NA,NA,"",       2.35255,      -2.31121,   439.098E-03,   1.20858E-03
C:/temp/dataset/test2/10_9.odb,Step-1,Increment      1: Step Time =    1.000,"PART-1-1",           394,            1.,       -2.8125,            0.,NA,NA,"",       2.28368,      -2.28365,   12.3400E-03,   2.09667E-03
C:/temp/dataset/test2/10_9.odb,Step-1,Increment      1: Step Time =    1.000,"PART-1-1",           395,            2.,         -3.75,            0.,NA,NA,"",       2.19417,      -2.19066,   124.182E-03,   3.85621E-03
C:/temp/dataset/test2/10_9.odb,Step-1,Increment      1: Step Time =    1.000,"PART-1-1",           396,           -1.,       -2.8125,            0.,NA,NA,"",       2.27827,      -2.26917,  -203.498E-03,   1.49842E-03
C:/temp/dataset/test2/10_9.odb,Step-1,Increment      1: Step Time =    1.000,"PART-1-1",           397,            0.,         -3.75,            0.,NA,NA,"",       2.17537,      -2.17347,  -90.8614E-03,   2.70137E-03
C:/temp/dataset/test2/10_9.odb,Step-1,Increment      1: Step Time =    1.000,"PART-1-1",           398,           -3.,       -2.8125,            0.,NA,NA,"",       2.29506,      -2.25626,  -420.238E-03,   850.502E-06
C:/temp/dataset/test2/10_9.odb,Step-1,Increment      1: Step Time =    1.000,"PART-1-1",           399,           -2.,         -3.75,            0.,NA,NA,"",       2.18075,      -2.15916,  -306.119E-03,   1.79237E-03
C:/temp/dataset/test2/10_9.odb,Step-1,Increment      1: Step Time =    1.000,"PART-1-1",           400,           -5.,       -2.8125,            0.,NA,NA,"",       2.33318,      -2.24399,  -638.911E-03,   363.916E-06
C:/temp/dataset/test2/10_9.odb,Step-1,Increment      1: Step Time =    1.000,"PART-1-1",           401,           -4.,         -3.75,            0.,NA,NA,"",       2.20970,      -2.14678,  -523.554E-03,   682.625E-06
C:/temp/dataset/test2/10_9.odb,Step-1,Increment      1: Step Time =    1.000,"PART-1-1",           402,            3.,       -4.6875,            0.,NA,NA,"",       2.11263,      -2.09958,   234.500E-03,   7.14766E-03
C:/temp/dataset/test2/10_9.odb,Step-1,Increment      1: Step Time =    1.000,"PART-1-1",           403,            4.,        -5.625,            0.,NA,NA,"",       2.03856,      -2.00932,   344.055E-03,   9.06802E-03
C:/temp/dataset/test2/10_9.odb,Step-1,Increment      1: Step Time =    1.000,"PART-1-1",           404,            5.,       -4.6875,            0.,NA,NA,"",       2.17143,      -2.12480,   447.562E-03,   7.39725E-03
C:/temp/dataset/test2/10_9.odb,Step-1,Increment      1: Step Time =    1.000,"PART-1-1",           405,            1.,       -4.6875,            0.,NA,NA,"",       2.07856,      -2.07846,   20.1700E-03,   4.82175E-03
C:/temp/dataset/test2/10_9.odb,Step-1,Increment      1: Step Time =    1.000,"PART-1-1",           406,            2.,        -5.625,            0.,NA,NA,"",       1.98822,      -1.98400,   129.415E-03,   7.67559E-03
C:/temp/dataset/test2/10_9.odb,Step-1,Increment      1: Step Time =    1.000,"PART-1-1",           407,           -1.,       -4.6875,            0.,NA,NA,"",       2.07087,      -2.06183,  -193.258E-03,   3.46320E-03
C:/temp/dataset/test2/10_9.odb,Step-1,Increment      1: Step Time =    1.000,"PART-1-1",           408,            0.,        -5.625,            0.,NA,NA,"",       1.96614,      -1.96442,  -82.2503E-03,   5.41853E-03
C:/temp/dataset/test2/10_9.odb,Step-1,Increment      1: Step Time =    1.000,"PART-1-1",           409,           -3.,       -4.6875,            0.,NA,NA,"",       2.08897,      -2.04866,  -408.385E-03,   2.23664E-03
C:/temp/dataset/test2/10_9.odb,Step-1,Increment      1: Step Time =    1.000,"PART-1-1",           410,           -2.,        -5.625,            0.,NA,NA,"",       1.97195,      -1.94983,  -294.504E-03,   3.74437E-03
C:/temp/dataset/test2/10_9.odb,Step-1,Increment      1: Step Time =    1.000,"PART-1-1",           411,           -5.,       -4.6875,            0.,NA,NA,"",       2.13141,      -2.03686,  -627.769E-03,   513.275E-06
C:/temp/dataset/test2/10_9.odb,Step-1,Increment      1: Step Time =    1.000,"PART-1-1",           412,           -4.,        -5.625,            0.,NA,NA,"",       2.00431,      -1.93814,  -510.745E-03,   1.88840E-03
C:/temp/dataset/test2/10_9.odb,Step-1,Increment      1: Step Time =    1.000,"PART-1-1",           413,            3.,       -6.5625,            0.,NA,NA,"",       1.90292,      -1.88801,   237.763E-03,   10.0043E-03
C:/temp/dataset/test2/10_9.odb,Step-1,Increment      1: Step Time =    1.000,"PART-1-1",           414,            4.,          -7.5,            0.,NA,NA,"",       1.82185,      -1.78830,   348.041E-03,   8.64715E-03
C:/temp/dataset/test2/10_9.odb,Step-1,Increment      1: Step Time =    1.000,"PART-1-1",           415,            5.,       -6.5625,            0.,NA,NA,"",       1.97002,      -1.91561,   459.796E-03,   7.79236E-03
C:/temp/dataset/test2/10_9.odb,Step-1,Increment      1: Step Time =    1.000,"PART-1-1",           416,            1.,       -6.5625,            0.,NA,NA,"",       1.86678,      -1.86658,   26.7563E-03,   7.53671E-03
C:/temp/dataset/test2/10_9.odb,Step-1,Increment      1: Step Time =    1.000,"PART-1-1",           417,            2.,          -7.5,            0.,NA,NA,"",       1.77250,      -1.76740,   134.445E-03,   9.12020E-03
C:/temp/dataset/test2/10_9.odb,Step-1,Increment      1: Step Time =    1.000,"PART-1-1",           418,           -1.,       -6.5625,            0.,NA,NA,"",       1.85939,      -1.85039,  -182.652E-03,   5.78020E-03
C:/temp/dataset/test2/10_9.odb,Step-1,Increment      1: Step Time =    1.000,"PART-1-1",           419,            0.,          -7.5,            0.,NA,NA,"",       1.75187,      -1.75035,  -73.1036E-03,   7.68750E-03
C:/temp/dataset/test2/10_9.odb,Step-1,Increment      1: Step Time =    1.000,"PART-1-1",           420,           -3.,       -6.5625,            0.,NA,NA,"",       1.88016,      -1.83823,  -394.895E-03,   4.11108E-03
C:/temp/dataset/test2/10_9.odb,Step-1,Increment      1: Step Time =    1.000,"PART-1-1",           421,           -2.,          -7.5,            0.,NA,NA,"",       1.76011,      -1.73749,  -281.284E-03,   5.82641E-03
C:/temp/dataset/test2/10_9.odb,Step-1,Increment      1: Step Time =    1.000,"PART-1-1",           422,           -5.,       -6.5625,            0.,NA,NA,"",       1.92823,      -1.82780,  -614.182E-03,   2.38813E-03
C:/temp/dataset/test2/10_9.odb,Step-1,Increment      1: Step Time =    1.000,"PART-1-1",           423,           -4.,          -7.5,            0.,NA,NA,"",       1.79712,      -1.72756,  -495.169E-03,   3.87403E-03
C:/temp/dataset/test2/10_9.odb,Step-1,Increment      1: Step Time =    1.000,"PART-1-1",           424,            3.,       -8.4375,            0.,NA,NA,"",       1.68382,      -1.66622,   242.824E-03,   8.80228E-03
C:/temp/dataset/test2/10_9.odb,Step-1,Increment      1: Step Time =    1.000,"PART-1-1",           425,            4.,        -9.375,            0.,NA,NA,"",       1.60396,      -1.56444,   353.877E-03,   6.91193E-03
C:/temp/dataset/test2/10_9.odb,Step-1,Increment      1: Step Time =    1.000,"PART-1-1",           426,            5.,       -8.4375,            0.,NA,NA,"",       1.74735,      -1.68384,   466.837E-03,   6.75098E-03
C:/temp/dataset/test2/10_9.odb,Step-1,Increment      1: Step Time =    1.000,"PART-1-1",           427,            1.,       -8.4375,            0.,NA,NA,"",       1.64986,      -1.64950,   34.5767E-03,   8.92131E-03
C:/temp/dataset/test2/10_9.odb,Step-1,Increment      1: Step Time =    1.000,"PART-1-1",           428,            2.,        -9.375,            0.,NA,NA,"",       1.55452,      -1.54809,   141.279E-03,   8.54425E-03
C:/temp/dataset/test2/10_9.odb,Step-1,Increment      1: Step Time =    1.000,"PART-1-1",           429,           -1.,       -8.4375,            0.,NA,NA,"",       1.64504,      -1.63619,  -170.401E-03,   7.65528E-03
C:/temp/dataset/test2/10_9.odb,Step-1,Increment      1: Step Time =    1.000,"PART-1-1",           430,            0.,        -9.375,            0.,NA,NA,"",       1.53593,      -1.53467,  -62.2339E-03,   8.63040E-03
C:/temp/dataset/test2/10_9.odb,Step-1,Increment      1: Step Time =    1.000,"PART-1-1",           431,           -3.,       -8.4375,            0.,NA,NA,"",       1.66976,      -1.62624,  -378.730E-03,   6.12611E-03
C:/temp/dataset/test2/10_9.odb,Step-1,Increment      1: Step Time =    1.000,"PART-1-1",           432,           -2.,        -9.375,            0.,NA,NA,"",       1.54745,      -1.52448,  -265.641E-03,   7.48080E-03
C:/temp/dataset/test2/10_9.odb,Step-1,Increment      1: Step Time =    1.000,"PART-1-1",           433,           -5.,       -8.4375,            0.,NA,NA,"",       1.72459,      -1.61818,  -596.401E-03,   5.28255E-03
C:/temp/dataset/test2/10_9.odb,Step-1,Increment      1: Step Time =    1.000,"PART-1-1",           434,           -4.,        -9.375,            0.,NA,NA,"",       1.58995,      -1.51710,  -475.745E-03,   6.43465E-03
C:/temp/dataset/test2/10_9.odb,Step-1,Increment      1: Step Time =    1.000,"PART-1-1",           435,            3.,      -10.3125,            0.,NA,NA,"",       1.46889,      -1.44787,   247.630E-03,   8.06183E-03
C:/temp/dataset/test2/10_9.odb,Step-1,Increment      1: Step Time =    1.000,"PART-1-1",           436,            4.,        -11.25,            0.,NA,NA,"",       1.39627,      -1.35105,   352.488E-03,   9.88220E-03
C:/temp/dataset/test2/10_9.odb,Step-1,Increment      1: Step Time =    1.000,"PART-1-1",           437,            5.,      -10.3125,            0.,NA,NA,"",       1.53847,      -1.46692,   463.729E-03,   10.4591E-03
C:/temp/dataset/test2/10_9.odb,Step-1,Increment      1: Step Time =    1.000,"PART-1-1",           438,            1.,      -10.3125,            0.,NA,NA,"",       1.43424,      -1.43358,   43.5585E-03,   9.04809E-03
C:/temp/dataset/test2/10_9.odb,Step-1,Increment      1: Step Time =    1.000,"PART-1-1",           439,            2.,        -11.25,            0.,NA,NA,"",       1.34229,      -1.33421,   147.106E-03,   8.40819E-03
C:/temp/dataset/test2/10_9.odb,Step-1,Increment      1: Step Time =    1.000,"PART-1-1",           440,           -1.,      -10.3125,            0.,NA,NA,"",       1.43143,      -1.42288,  -156.186E-03,   8.71583E-03
C:/temp/dataset/test2/10_9.odb,Step-1,Increment      1: Step Time =    1.000,"PART-1-1",           441,            0.,        -11.25,            0.,NA,NA,"",       1.32322,      -1.32226,  -50.4009E-03,   8.72943E-03
C:/temp/dataset/test2/10_9.odb,Step-1,Increment      1: Step Time =    1.000,"PART-1-1",           442,           -3.,      -10.3125,            0.,NA,NA,"",       1.46044,      -1.41555,  -359.309E-03,   8.05815E-03
C:/temp/dataset/test2/10_9.odb,Step-1,Increment      1: Step Time =    1.000,"PART-1-1",           443,           -2.,        -11.25,            0.,NA,NA,"",       1.33748,      -1.31437,  -247.553E-03,   8.64511E-03
C:/temp/dataset/test2/10_9.odb,Step-1,Increment      1: Step Time =    1.000,"PART-1-1",           444,           -5.,      -10.3125,            0.,NA,NA,"",       1.52258,      -1.41059,  -573.148E-03,   8.88054E-03
C:/temp/dataset/test2/10_9.odb,Step-1,Increment      1: Step Time =    1.000,"PART-1-1",           445,           -4.,        -11.25,            0.,NA,NA,"",       1.38564,      -1.30987,  -451.925E-03,   9.30450E-03
C:/temp/dataset/test2/10_9.odb,Step-1,Increment      1: Step Time =    1.000,"PART-1-1",           446,            3.,      -12.1875,            0.,NA,NA,"",       1.26262,      -1.23805,   247.883E-03,   9.71089E-03
C:/temp/dataset/test2/10_9.odb,Step-1,Increment      1: Step Time =    1.000,"PART-1-1",           447,            4.,       -13.125,            0.,NA,NA,"",       1.19698,      -1.14612,   345.218E-03,   12.7184E-03
C:/temp/dataset/test2/10_9.odb,Step-1,Increment      1: Step Time =    1.000,"PART-1-1",           448,            5.,      -12.1875,            0.,NA,NA,"",       1.33817,      -1.25857,   454.635E-03,   13.8958E-03
C:/temp/dataset/test2/10_9.odb,Step-1,Increment      1: Step Time =    1.000,"PART-1-1",           449,            1.,      -12.1875,            0.,NA,NA,"",       1.22477,      -1.22368,   51.6341E-03,   8.98083E-03
C:/temp/dataset/test2/10_9.odb,Step-1,Increment      1: Step Time =    1.000,"PART-1-1",           450,            2.,       -13.125,            0.,NA,NA,"",       1.13816,      -1.12828,   149.617E-03,   9.27740E-03
C:/temp/dataset/test2/10_9.odb,Step-1,Increment      1: Step Time =    1.000,"PART-1-1",           451,           -1.,      -12.1875,            0.,NA,NA,"",       1.22257,      -1.21444,  -140.707E-03,   9.18454E-03
C:/temp/dataset/test2/10_9.odb,Step-1,Increment      1: Step Time =    1.000,"PART-1-1",           452,            0.,       -13.125,            0.,NA,NA,"",       1.11743,      -1.11675,  -38.9383E-03,   8.68613E-03
C:/temp/dataset/test2/10_9.odb,Step-1,Increment      1: Step Time =    1.000,"PART-1-1",           453,           -3.,      -12.1875,            0.,NA,NA,"",       1.25553,      -1.20957,  -336.622E-03,   9.91612E-03
C:/temp/dataset/test2/10_9.odb,Step-1,Increment      1: Step Time =    1.000,"PART-1-1",           454,           -2.,       -13.125,            0.,NA,NA,"",       1.13370,      -1.11064,  -227.494E-03,   9.59123E-03
C:/temp/dataset/test2/10_9.odb,Step-1,Increment      1: Step Time =    1.000,"PART-1-1",           455,           -5.,      -12.1875,            0.,NA,NA,"",       1.32495,      -1.20815,  -543.935E-03,   12.7866E-03
C:/temp/dataset/test2/10_9.odb,Step-1,Increment      1: Step Time =    1.000,"PART-1-1",           456,           -4.,       -13.125,            0.,NA,NA,"",       1.18728,      -1.10912,  -423.662E-03,   12.2882E-03
C:/temp/dataset/test2/10_9.odb,Step-1,Increment      1: Step Time =    1.000,"PART-1-1",           457,            3.,      -14.0625,            0.,NA,NA,"",       1.06519,      -1.03708,   243.127E-03,   11.7435E-03
C:/temp/dataset/test2/10_9.odb,Step-1,Increment      1: Step Time =    1.000,"PART-1-1",           458,            4.,          -15.,            0.,NA,NA,"",       1.00710,  -950.845E-03,   331.882E-03,   15.6458E-03
C:/temp/dataset/test2/10_9.odb,Step-1,Increment      1: Step Time =    1.000,"PART-1-1",           459,            5.,      -14.0625,            0.,NA,NA,"",       1.14641,      -1.05911,   438.772E-03,   17.4131E-03
C:/temp/dataset/test2/10_9.odb,Step-1,Increment      1: Step Time =    1.000,"PART-1-1",           460,            1.,      -14.0625,            0.,NA,NA,"",       1.02393,      -1.02231,   57.5029E-03,   9.18794E-03
C:/temp/dataset/test2/10_9.odb,Step-1,Increment      1: Step Time =    1.000,"PART-1-1",           461,            2.,          -15.,            0.,NA,NA,"",   943.786E-03,  -932.056E-03,   148.339E-03,   10.4273E-03
C:/temp/dataset/test2/10_9.odb,Step-1,Increment      1: Step Time =    1.000,"PART-1-1",           462,           -1.,      -14.0625,            0.,NA,NA,"",       1.02170,      -1.01406,  -124.751E-03,   9.43153E-03
C:/temp/dataset/test2/10_9.odb,Step-1,Increment      1: Step Time =    1.000,"PART-1-1",           463,            0.,          -15.,            0.,NA,NA,"",   921.215E-03,  -920.771E-03,  -28.5924E-03,   8.66010E-03
C:/temp/dataset/test2/10_9.odb,Step-1,Increment      1: Step Time =    1.000,"PART-1-1",           464,           -3.,      -14.0625,            0.,NA,NA,"",       1.05822,      -1.01151,  -310.941E-03,   11.7967E-03
C:/temp/dataset/test2/10_9.odb,Step-1,Increment      1: Step Time =    1.000,"PART-1-1",           465,           -2.,          -15.,            0.,NA,NA,"",   939.128E-03,  -916.274E-03,  -205.922E-03,   10.5436E-03
C:/temp/dataset/test2/10_9.odb,Step-1,Increment      1: Step Time =    1.000,"PART-1-1",           466,           -5.,      -14.0625,            0.,NA,NA,"",       1.13442,      -1.01389,  -508.856E-03,   16.7385E-03
C:/temp/dataset/test2/10_9.odb,Step-1,Increment      1: Step Time =    1.000,"PART-1-1",           467,           -4.,          -15.,            0.,NA,NA,"",   997.716E-03,  -917.838E-03,  -391.164E-03,   15.2907E-03
C:/temp/dataset/test2/10_9.odb,Step-1,Increment      1: Step Time =    1.000,"PART-1-1",           468,            3.,      -15.9375,            0.,NA,NA,"",   878.368E-03,  -846.811E-03,   233.324E-03,   13.8689E-03
C:/temp/dataset/test2/10_9.odb,Step-1,Increment      1: Step Time =    1.000,"PART-1-1",           469,            4.,       -16.875,            0.,NA,NA,"",   828.451E-03,  -767.328E-03,   312.310E-03,   18.6260E-03
C:/temp/dataset/test2/10_9.odb,Step-1,Increment      1: Step Time =    1.000,"PART-1-1",           470,            5.,      -15.9375,            0.,NA,NA,"",   964.479E-03,  -870.267E-03,   415.758E-03,   21.0811E-03
C:/temp/dataset/test2/10_9.odb,Step-1,Increment      1: Step Time =    1.000,"PART-1-1",           471,            1.,      -15.9375,            0.,NA,NA,"",   833.911E-03,  -831.695E-03,   60.7585E-03,   9.55510E-03
C:/temp/dataset/test2/10_9.odb,Step-1,Increment      1: Step Time =    1.000,"PART-1-1",           472,            2.,       -16.875,            0.,NA,NA,"",   761.255E-03,  -747.682E-03,   143.112E-03,   11.6876E-03
C:/temp/dataset/test2/10_9.odb,Step-1,Increment      1: Step Time =    1.000,"PART-1-1",           473,           -1.,      -15.9375,            0.,NA,NA,"",   831.511E-03,  -824.365E-03,  -108.778E-03,   9.65944E-03
C:/temp/dataset/test2/10_9.odb,Step-1,Increment      1: Step Time =    1.000,"PART-1-1",           474,            0.,       -16.875,            0.,NA,NA,"",   736.960E-03,  -736.697E-03,  -19.6727E-03,   8.65543E-03
C:/temp/dataset/test2/10_9.odb,Step-1,Increment      1: Step Time =    1.000,"PART-1-1",           475,           -3.,      -15.9375,            0.,NA,NA,"",   871.268E-03,  -824.180E-03,  -282.550E-03,   13.7494E-03
C:/temp/dataset/test2/10_9.odb,Step-1,Increment      1: Step Time =    1.000,"PART-1-1",           476,           -2.,       -16.875,            0.,NA,NA,"",   756.363E-03,  -733.861E-03,  -183.121E-03,   11.5849E-03
C:/temp/dataset/test2/10_9.odb,Step-1,Increment      1: Step Time =    1.000,"PART-1-1",           477,           -5.,      -15.9375,            0.,NA,NA,"",   953.419E-03,  -830.525E-03,  -468.226E-03,   20.6381E-03
C:/temp/dataset/test2/10_9.odb,Step-1,Increment      1: Step Time =    1.000,"PART-1-1",           478,           -4.,       -16.875,            0.,NA,NA,"",   819.372E-03,  -738.627E-03,  -354.684E-03,   18.2835E-03
C:/temp/dataset/test2/10_9.odb,Step-1,Increment      1: Step Time =    1.000,"PART-1-1",           479,            3.,      -17.8125,            0.,NA,NA,"",   704.218E-03,  -669.522E-03,   218.320E-03,   16.0386E-03
C:/temp/dataset/test2/10_9.odb,Step-1,Increment      1: Step Time =    1.000,"PART-1-1",           480,            4.,        -18.75,            0.,NA,NA,"",   662.970E-03,  -597.971E-03,   286.286E-03,   21.6471E-03
C:/temp/dataset/test2/10_9.odb,Step-1,Increment      1: Step Time =    1.000,"PART-1-1",           481,            5.,      -17.8125,            0.,NA,NA,"",   794.021E-03,  -694.320E-03,   385.213E-03,   24.8281E-03
C:/temp/dataset/test2/10_9.odb,Step-1,Increment      1: Step Time =    1.000,"PART-1-1",           482,            1.,      -17.8125,            0.,NA,NA,"",   657.004E-03,  -654.145E-03,   61.2332E-03,   9.99316E-03
C:/temp/dataset/test2/10_9.odb,Step-1,Increment      1: Step Time =    1.000,"PART-1-1",           483,            2.,        -18.75,            0.,NA,NA,"",   592.837E-03,  -577.537E-03,   133.819E-03,   13.0086E-03
C:/temp/dataset/test2/10_9.odb,Step-1,Increment      1: Step Time =    1.000,"PART-1-1",           484,           -1.,      -17.8125,            0.,NA,NA,"",   654.451E-03,  -647.809E-03,  -93.0040E-03,   9.93231E-03
C:/temp/dataset/test2/10_9.odb,Step-1,Increment      1: Step Time =    1.000,"PART-1-1",           485,            0.,        -18.75,            0.,NA,NA,"",   567.057E-03,  -566.924E-03,  -12.3188E-03,   8.66085E-03
C:/temp/dataset/test2/10_9.odb,Step-1,Increment      1: Step Time =    1.000,"PART-1-1",           486,           -3.,      -17.8125,            0.,NA,NA,"",   697.093E-03,  -650.080E-03,  -251.665E-03,   15.7717E-03
C:/temp/dataset/test2/10_9.odb,Step-1,Increment      1: Step Time =    1.000,"PART-1-1",           487,           -2.,        -18.75,            0.,NA,NA,"",   587.807E-03,  -565.823E-03,  -159.253E-03,   12.7156E-03
C:/temp/dataset/test2/10_9.odb,Step-1,Increment      1: Step Time =    1.000,"PART-1-1",           488,           -5.,      -17.8125,            0.,NA,NA,"",   784.000E-03,  -660.520E-03,  -422.338E-03,   24.4784E-03
C:/temp/dataset/test2/10_9.odb,Step-1,Increment      1: Step Time =    1.000,"PART-1-1",           489,           -4.,        -18.75,            0.,NA,NA,"",   654.376E-03,  -573.888E-03,  -314.421E-03,   21.2650E-03
C:/temp/dataset/test2/10_9.odb,Step-1,Increment      1: Step Time =    1.000,"PART-1-1",           490,            3.,      -19.6875,            0.,NA,NA,"",   544.909E-03,  -507.666E-03,   197.991E-03,   18.2432E-03
C:/temp/dataset/test2/10_9.odb,Step-1,Increment      1: Step Time =    1.000,"PART-1-1",           491,            4.,       -20.625,            0.,NA,NA,"",   512.481E-03,  -445.288E-03,   253.684E-03,   24.6894E-03
C:/temp/dataset/test2/10_9.odb,Step-1,Increment      1: Step Time =    1.000,"PART-1-1",           492,            5.,      -19.6875,            0.,NA,NA,"",   636.598E-03,  -533.756E-03,   346.931E-03,   28.6144E-03
C:/temp/dataset/test2/10_9.odb,Step-1,Increment      1: Step Time =    1.000,"PART-1-1",           493,            1.,      -19.6875,            0.,NA,NA,"",   495.571E-03,  -492.067E-03,   58.8297E-03,   10.4835E-03
C:/temp/dataset/test2/10_9.odb,Step-1,Increment      1: Step Time =    1.000,"PART-1-1",           494,            2.,       -20.625,            0.,NA,NA,"",   440.825E-03,  -424.074E-03,   120.366E-03,   14.3840E-03
C:/temp/dataset/test2/10_9.odb,Step-1,Increment      1: Step Time =    1.000,"PART-1-1",           495,           -1.,      -19.6875,            0.,NA,NA,"",   492.915E-03,  -486.778E-03,  -77.5395E-03,   10.2628E-03
C:/temp/dataset/test2/10_9.odb,Step-1,Increment      1: Step Time =    1.000,"PART-1-1",           496,            0.,       -20.625,            0.,NA,NA,"",   413.887E-03,  -413.834E-03,  -6.60393E-03,   8.67887E-03
C:/temp/dataset/test2/10_9.odb,Step-1,Increment      1: Step Time =    1.000,"PART-1-1",           497,           -3.,      -19.6875,            0.,NA,NA,"",   537.914E-03,  -491.572E-03,  -218.422E-03,   17.8423E-03
C:/temp/dataset/test2/10_9.odb,Step-1,Increment      1: Step Time =    1.000,"PART-1-1",           498,           -2.,       -20.625,            0.,NA,NA,"",   435.754E-03,  -414.510E-03,  -134.396E-03,   13.9163E-03
C:/temp/dataset/test2/10_9.odb,Step-1,Increment      1: Step Time =    1.000,"PART-1-1",           499,           -5.,      -19.6875,            0.,NA,NA,"",   627.813E-03,  -506.182E-03,  -371.388E-03,   28.2835E-03
C:/temp/dataset/test2/10_9.odb,Step-1,Increment      1: Step Time =    1.000,"PART-1-1",           500,           -4.,       -20.625,            0.,NA,NA,"",   504.554E-03,  -425.918E-03,  -270.496E-03,   24.2441E-03
C:/temp/dataset/test2/10_9.odb,Step-1,Increment      1: Step Time =    1.000,"PART-1-1",           501,            3.,      -21.5625,            0.,NA,NA,"",   402.471E-03,  -363.750E-03,   172.247E-03,   20.4958E-03
C:/temp/dataset/test2/10_9.odb,Step-1,Increment      1: Step Time =    1.000,"PART-1-1",           502,            4.,         -22.5,            0.,NA,NA,"",   378.499E-03,  -311.868E-03,   214.476E-03,   27.7139E-03
C:/temp/dataset/test2/10_9.odb,Step-1,Increment      1: Step Time =    1.000,"PART-1-1",           503,            5.,      -21.5625,            0.,NA,NA,"",   493.439E-03,  -391.138E-03,   300.821E-03,   32.3742E-03
C:/temp/dataset/test2/10_9.odb,Step-1,Increment      1: Step Time =    1.000,"PART-1-1",           504,            1.,      -21.5625,            0.,NA,NA,"",   351.965E-03,  -347.879E-03,   53.4728E-03,   11.0398E-03
C:/temp/dataset/test2/10_9.odb,Step-1,Increment      1: Step Time =    1.000,"PART-1-1",           505,            2.,         -22.5,            0.,NA,NA,"",   307.431E-03,  -289.771E-03,   102.696E-03,   15.8503E-03
C:/temp/dataset/test2/10_9.odb,Step-1,Increment      1: Step Time =    1.000,"PART-1-1",           506,           -1.,      -21.5625,            0.,NA,NA,"",   349.243E-03,  -343.621E-03,  -62.4121E-03,   10.6566E-03
C:/temp/dataset/test2/10_9.odb,Step-1,Increment      1: Step Time =    1.000,"PART-1-1",           507,            0.,         -22.5,            0.,NA,NA,"",   279.838E-03,  -279.826E-03,  -2.55591E-03,   8.74890E-03
C:/temp/dataset/test2/10_9.odb,Step-1,Increment      1: Step Time =    1.000,"PART-1-1",           508,           -3.,      -21.5625,            0.,NA,NA,"",   395.747E-03,  -350.962E-03,  -182.869E-03,   19.9611E-03
C:/temp/dataset/test2/10_9.odb,Step-1,Increment      1: Step Time =    1.000,"PART-1-1",           509,           -2.,         -22.5,            0.,NA,NA,"",   302.409E-03,  -282.253E-03,  -108.557E-03,   15.2021E-03
C:/temp/dataset/test2/10_9.odb,Step-1,Increment      1: Step Time =    1.000,"PART-1-1",           510,           -5.,      -21.5625,            0.,NA,NA,"",   486.049E-03,  -369.763E-03,  -315.466E-03,   32.0432E-03
C:/temp/dataset/test2/10_9.odb,Step-1,Increment      1: Step Time =    1.000,"PART-1-1",           511,           -4.,         -22.5,            0.,NA,NA,"",   371.389E-03,  -297.018E-03,  -222.956E-03,   27.1997E-03
C:/temp/dataset/test2/10_9.odb,Step-1,Increment      1: Step Time =    1.000,"PART-1-1",           512,            3.,      -23.4375,            0.,NA,NA,"",   278.675E-03,  -240.328E-03,   141.076E-03,   22.7784E-03
C:/temp/dataset/test2/10_9.odb,Step-1,Increment      1: Step Time =    1.000,"PART-1-1",           513,            4.,       -24.375,            0.,NA,NA,"",   261.761E-03,  -200.134E-03,   168.716E-03,   30.7685E-03
C:/temp/dataset/test2/10_9.odb,Step-1,Increment      1: Step Time =    1.000,"PART-1-1",           514,            5.,      -23.4375,            0.,NA,NA,"",   365.265E-03,  -269.080E-03,   247.010E-03,   36.1054E-03
C:/temp/dataset/test2/10_9.odb,Step-1,Increment      1: Step Time =    1.000,"PART-1-1",           515,            1.,      -23.4375,            0.,NA,NA,"",   228.516E-03,  -224.010E-03,   45.1580E-03,   11.7314E-03
C:/temp/dataset/test2/10_9.odb,Step-1,Increment      1: Step Time =    1.000,"PART-1-1",           516,            2.,       -24.375,            0.,NA,NA,"",   194.563E-03,  -177.053E-03,   80.6655E-03,   17.3969E-03
C:/temp/dataset/test2/10_9.odb,Step-1,Increment      1: Step Time =    1.000,"PART-1-1",           517,           -1.,      -23.4375,            0.,NA,NA,"",   225.774E-03,  -220.695E-03,  -47.6177E-03,   11.1667E-03
C:/temp/dataset/test2/10_9.odb,Step-1,Increment      1: Step Time =    1.000,"PART-1-1",           518,            0.,       -24.375,            0.,NA,NA,"",   167.229E-03,  -167.229E-03,  -129.483E-06,   8.89397E-03
C:/temp/dataset/test2/10_9.odb,Step-1,Increment      1: Step Time =    1.000,"PART-1-1",           519,           -3.,      -23.4375,            0.,NA,NA,"",   272.395E-03,  -230.598E-03,  -144.994E-03,   22.0986E-03
C:/temp/dataset/test2/10_9.odb,Step-1,Increment      1: Step Time =    1.000,"PART-1-1",           520,           -2.,       -24.375,            0.,NA,NA,"",   189.760E-03,  -171.366E-03,  -81.5017E-03,   16.5511E-03
C:/temp/dataset/test2/10_9.odb,Step-1,Increment      1: Step Time =    1.000,"PART-1-1",           521,           -5.,      -23.4375,            0.,NA,NA,"",   359.317E-03,  -253.515E-03,  -254.635E-03,   35.8037E-03
C:/temp/dataset/test2/10_9.odb,Step-1,Increment      1: Step Time =    1.000,"PART-1-1",           522,           -4.,       -24.375,            0.,NA,NA,"",   255.654E-03,  -189.368E-03,  -171.752E-03,   30.2091E-03
C:/temp/dataset/test2/10_9.odb,Step-1,Increment      1: Step Time =    1.000,"PART-1-1",           523,            3.,      -25.3125,            0.,NA,NA,"",   174.325E-03,  -139.678E-03,   104.303E-03,   25.3385E-03
C:/temp/dataset/test2/10_9.odb,Step-1,Increment      1: Step Time =    1.000,"PART-1-1",           524,            4.,        -26.25,            0.,NA,NA,"",   162.305E-03,  -112.641E-03,   116.854E-03,   33.6854E-03
C:/temp/dataset/test2/10_9.odb,Step-1,Increment      1: Step Time =    1.000,"PART-1-1",           525,            5.,      -25.3125,            0.,NA,NA,"",   251.682E-03,  -169.847E-03,   185.730E-03,   39.3037E-03
C:/temp/dataset/test2/10_9.odb,Step-1,Increment      1: Step Time =    1.000,"PART-1-1",           526,            1.,      -25.3125,            0.,NA,NA,"",   127.370E-03,  -122.819E-03,   33.7443E-03,   12.4416E-03
C:/temp/dataset/test2/10_9.odb,Step-1,Increment      1: Step Time =    1.000,"PART-1-1",           527,            2.,        -26.25,            0.,NA,NA,"",   103.826E-03,  -88.3172E-03,   54.5889E-03,   19.2103E-03
C:/temp/dataset/test2/10_9.odb,Step-1,Increment      1: Step Time =    1.000,"PART-1-1",           528,           -1.,      -25.3125,            0.,NA,NA,"",   124.731E-03,  -120.333E-03,  -32.8311E-03,   11.6746E-03
C:/temp/dataset/test2/10_9.odb,Step-1,Increment      1: Step Time =    1.000,"PART-1-1",           529,            0.,        -26.25,            0.,NA,NA,"",   78.7051E-03,  -78.7011E-03,   793.447E-06,   8.96697E-03
C:/temp/dataset/test2/10_9.odb,Step-1,Increment      1: Step Time =    1.000,"PART-1-1",           530,           -3.,      -25.3125,            0.,NA,NA,"",   168.786E-03,  -132.616E-03,  -104.412E-03,   24.5348E-03
C:/temp/dataset/test2/10_9.odb,Step-1,Increment      1: Step Time =    1.000,"PART-1-1",           531,           -2.,        -26.25,            0.,NA,NA,"",   99.6342E-03,  -84.1806E-03,  -53.2972E-03,   18.2101E-03
C:/temp/dataset/test2/10_9.odb,Step-1,Increment      1: Step Time =    1.000,"PART-1-1",           532,           -5.,      -25.3125,            0.,NA,NA,"",   247.191E-03,  -159.447E-03,  -188.892E-03,   39.0210E-03
C:/temp/dataset/test2/10_9.odb,Step-1,Increment      1: Step Time =    1.000,"PART-1-1",           533,           -4.,        -26.25,            0.,NA,NA,"",   157.459E-03,  -105.401E-03,  -116.978E-03,   33.0920E-03
C:/temp/dataset/test2/10_9.odb,Step-1,Increment      1: Step Time =    1.000,"PART-1-1",           534,            3.,      -27.1875,            0.,NA,NA,"",   89.1674E-03,  -63.5568E-03,   62.5409E-03,   27.3311E-03
C:/temp/dataset/test2/10_9.odb,Step-1,Increment      1: Step Time =    1.000,"PART-1-1",           535,            4.,       -28.125,            0.,NA,NA,"",   74.3717E-03,  -46.7094E-03,   57.8738E-03,   37.1740E-03
C:/temp/dataset/test2/10_9.odb,Step-1,Increment      1: Step Time =    1.000,"PART-1-1",           536,            5.,      -27.1875,            0.,NA,NA,"",   152.714E-03,  -95.4767E-03,   119.188E-03,   43.1596E-03
C:/temp/dataset/test2/10_9.odb,Step-1,Increment      1: Step Time =    1.000,"PART-1-1",           537,            1.,      -27.1875,            0.,NA,NA,"",   51.6008E-03,  -47.5871E-03,   19.9528E-03,   12.4004E-03
C:/temp/dataset/test2/10_9.odb,Step-1,Increment      1: Step Time =    1.000,"PART-1-1",           538,            2.,       -28.125,            0.,NA,NA,"",   36.6631E-03,  -26.4985E-03,   25.3379E-03,   19.8818E-03
C:/temp/dataset/test2/10_9.odb,Step-1,Increment      1: Step Time =    1.000,"PART-1-1",           539,           -1.,      -27.1875,            0.,NA,NA,"",   49.4112E-03,  -45.8481E-03,  -18.4233E-03,   11.5214E-03
C:/temp/dataset/test2/10_9.odb,Step-1,Increment      1: Step Time =    1.000,"PART-1-1",           540,            0.,       -28.125,            0.,NA,NA,"",   19.1572E-03,  -19.1493E-03,   551.003E-06,   7.39855E-03
C:/temp/dataset/test2/10_9.odb,Step-1,Increment      1: Step Time =    1.000,"PART-1-1",           541,           -3.,      -27.1875,            0.,NA,NA,"",   84.9615E-03,  -58.7951E-03,  -61.3318E-03,   26.3576E-03
C:/temp/dataset/test2/10_9.odb,Step-1,Increment      1: Step Time =    1.000,"PART-1-1",           542,           -2.,       -28.125,            0.,NA,NA,"",   34.0698E-03,  -23.9768E-03,  -24.2047E-03,   18.6927E-03
C:/temp/dataset/test2/10_9.odb,Step-1,Increment      1: Step Time =    1.000,"PART-1-1",           543,           -5.,      -27.1875,            0.,NA,NA,"",   149.581E-03,  -89.3620E-03,  -119.954E-03,   43.0457E-03
C:/temp/dataset/test2/10_9.odb,Step-1,Increment      1: Step Time =    1.000,"PART-1-1",           544,           -4.,       -28.125,            0.,NA,NA,"",   71.0234E-03,  -42.4398E-03,  -56.9490E-03,   36.5556E-03
C:/temp/dataset/test2/10_9.odb,Step-1,Increment      1: Step Time =    1.000,"PART-1-1",           545,            3.,      -29.0625,            0.,NA,NA,"",   21.6475E-03,  -11.3595E-03,   18.4276E-03,   24.8842E-03
C:/temp/dataset/test2/10_9.odb,Step-1,Increment      1: Step Time =    1.000,"PART-1-1",           546,            4.,          -30.,            0.,NA,NA,"",            0.,  -351.722E-42,   46.8846E-39,   38.9873E-03
C:/temp/dataset/test2/10_9.odb,Step-1,Increment      1: Step Time =    1.000,"PART-1-1",           547,            5.,      -29.0625,            0.,NA,NA,"",   57.1191E-03,  -38.5828E-03,   42.1184E-03,   49.8534E-03
C:/temp/dataset/test2/10_9.odb,Step-1,Increment      1: Step Time =    1.000,"PART-1-1",           548,            1.,      -29.0625,            0.,NA,NA,"",   7.56674E-03,  -4.65596E-03,   5.96469E-03,   8.28989E-03
C:/temp/dataset/test2/10_9.odb,Step-1,Increment      1: Step Time =    1.000,"PART-1-1",           549,            2.,          -30.,            0.,NA,NA,"",            0.,  -81.9073E-42,   22.6347E-39,   14.3066E-03
C:/temp/dataset/test2/10_9.odb,Step-1,Increment      1: Step Time =    1.000,"PART-1-1",           550,           -1.,      -29.0625,            0.,NA,NA,"",   6.73993E-03,  -3.88090E-03,  -5.51047E-03,   7.59101E-03
C:/temp/dataset/test2/10_9.odb,Step-1,Increment      1: Step Time =    1.000,"PART-1-1",           551,            0.,          -30.,            0.,NA,NA,"",            0.,   1.77039E-39,   40.2509E-42,   1.39165E-03
C:/temp/dataset/test2/10_9.odb,Step-1,Increment      1: Step Time =    1.000,"PART-1-1",           552,           -3.,      -29.0625,            0.,NA,NA,"",   20.1169E-03,  -9.20109E-03,  -17.8894E-03,   23.8812E-03
C:/temp/dataset/test2/10_9.odb,Step-1,Increment      1: Step Time =    1.000,"PART-1-1",           553,           -2.,          -30.,            0.,NA,NA,"",            0.,   465.646E-42,  -22.4822E-39,   13.9137E-03
C:/temp/dataset/test2/10_9.odb,Step-1,Increment      1: Step Time =    1.000,"PART-1-1",           554,           -5.,      -29.0625,            0.,NA,NA,"",   55.3426E-03,  -36.4123E-03,  -41.6767E-03,   48.8611E-03
C:/temp/dataset/test2/10_9.odb,Step-1,Increment      1: Step Time =    1.000,"PART-1-1",           555,           -4.,          -30.,            0.,NA,NA,"",            0.,   452.640E-42,  -46.3502E-39,   37.5968E-03
