ODB Name,Step,Frame,Part Instance Name,    êﬂì_ÉâÉxÉã,X,Y,Z,Section Name,Material Name,Section Point,   U-Magnitude,          U-U1,          U-U2,       S-Mises
C:/temp/dataset/test2/11_4.odb,Step-1,Increment      1: Step Time =    1.000,"PART-1-1",             1,            5.,           30.,            0.,NA,NA,"",       1.93001,      -1.92456,   145.010E-03,   8.38992E-09
C:/temp/dataset/test2/11_4.odb,Step-1,Increment      1: Step Time =    1.000,"PART-1-1",             2,            3.,           30.,            0.,NA,NA,"",       1.92485,      -1.92336,   75.7315E-03,   7.80105E-09
C:/temp/dataset/test2/11_4.odb,Step-1,Increment      1: Step Time =    1.000,"PART-1-1",             3,            1.,           30.,            0.,NA,NA,"",       1.92217,      -1.92216,   6.45272E-03,   8.04880E-09
C:/temp/dataset/test2/11_4.odb,Step-1,Increment      1: Step Time =    1.000,"PART-1-1",             4,           -1.,           30.,            0.,NA,NA,"",       1.92198,      -1.92096,  -62.8261E-03,   8.25131E-09
C:/temp/dataset/test2/11_4.odb,Step-1,Increment      1: Step Time =    1.000,"PART-1-1",             5,           -3.,           30.,            0.,NA,NA,"",       1.92429,      -1.91975,  -132.105E-03,   8.32939E-09
C:/temp/dataset/test2/11_4.odb,Step-1,Increment      1: Step Time =    1.000,"PART-1-1",             6,           -5.,           30.,            0.,NA,NA,"",       1.92910,      -1.91855,  -201.384E-03,   8.43475E-09
C:/temp/dataset/test2/11_4.odb,Step-1,Increment      1: Step Time =    1.000,"PART-1-1",             7,            5.,        28.125,            0.,NA,NA,"",       1.86534,      -1.85961,   146.136E-03,   8.43740E-09
C:/temp/dataset/test2/11_4.odb,Step-1,Increment      1: Step Time =    1.000,"PART-1-1",             8,            3.,        28.125,            0.,NA,NA,"",       1.86000,      -1.85841,   76.8567E-03,   8.17234E-09
C:/temp/dataset/test2/11_4.odb,Step-1,Increment      1: Step Time =    1.000,"PART-1-1",             9,            1.,        28.125,            0.,NA,NA,"",       1.85722,      -1.85721,   7.57795E-03,   7.98597E-09
C:/temp/dataset/test2/11_4.odb,Step-1,Increment      1: Step Time =    1.000,"PART-1-1",            10,           -1.,        28.125,            0.,NA,NA,"",       1.85703,      -1.85601,  -61.7008E-03,   7.93546E-09
C:/temp/dataset/test2/11_4.odb,Step-1,Increment      1: Step Time =    1.000,"PART-1-1",            11,           -3.,        28.125,            0.,NA,NA,"",       1.85942,      -1.85481,  -130.980E-03,   8.01406E-09
C:/temp/dataset/test2/11_4.odb,Step-1,Increment      1: Step Time =    1.000,"PART-1-1",            12,           -5.,        28.125,            0.,NA,NA,"",       1.86439,      -1.85361,  -200.258E-03,   7.85231E-09
C:/temp/dataset/test2/11_4.odb,Step-1,Increment      1: Step Time =    1.000,"PART-1-1",            13,            5.,         26.25,            0.,NA,NA,"",       1.80069,      -1.79466,   147.261E-03,   8.87443E-09
C:/temp/dataset/test2/11_4.odb,Step-1,Increment      1: Step Time =    1.000,"PART-1-1",            14,            3.,         26.25,            0.,NA,NA,"",       1.79515,      -1.79346,   77.9820E-03,   8.22736E-09
C:/temp/dataset/test2/11_4.odb,Step-1,Increment      1: Step Time =    1.000,"PART-1-1",            15,            1.,         26.25,            0.,NA,NA,"",       1.79228,      -1.79226,   8.70318E-03,   7.75687E-09
C:/temp/dataset/test2/11_4.odb,Step-1,Increment      1: Step Time =    1.000,"PART-1-1",            16,           -1.,         26.25,            0.,NA,NA,"",       1.79208,      -1.79106,  -60.5756E-03,   7.58643E-09
C:/temp/dataset/test2/11_4.odb,Step-1,Increment      1: Step Time =    1.000,"PART-1-1",            17,           -3.,         26.25,            0.,NA,NA,"",       1.79456,      -1.78986,  -129.854E-03,   7.76610E-09
C:/temp/dataset/test2/11_4.odb,Step-1,Increment      1: Step Time =    1.000,"PART-1-1",            18,           -5.,         26.25,            0.,NA,NA,"",       1.79971,      -1.78866,  -199.133E-03,   8.02125E-09
C:/temp/dataset/test2/11_4.odb,Step-1,Increment      1: Step Time =    1.000,"PART-1-1",            19,            5.,        24.375,            0.,NA,NA,"",       1.73606,      -1.72971,   148.386E-03,   9.66675E-09
C:/temp/dataset/test2/11_4.odb,Step-1,Increment      1: Step Time =    1.000,"PART-1-1",            20,            3.,        24.375,            0.,NA,NA,"",       1.73032,      -1.72851,   79.1072E-03,   8.07814E-09
C:/temp/dataset/test2/11_4.odb,Step-1,Increment      1: Step Time =    1.000,"PART-1-1",            21,            1.,        24.375,            0.,NA,NA,"",       1.72734,      -1.72731,   9.82840E-03,   7.16195E-09
C:/temp/dataset/test2/11_4.odb,Step-1,Increment      1: Step Time =    1.000,"PART-1-1",            22,           -1.,        24.375,            0.,NA,NA,"",       1.72713,      -1.72611,  -59.4504E-03,   6.93898E-09
C:/temp/dataset/test2/11_4.odb,Step-1,Increment      1: Step Time =    1.000,"PART-1-1",            23,           -3.,        24.375,            0.,NA,NA,"",       1.72971,      -1.72491,  -128.729E-03,   7.39378E-09
C:/temp/dataset/test2/11_4.odb,Step-1,Increment      1: Step Time =    1.000,"PART-1-1",            24,           -5.,        24.375,            0.,NA,NA,"",       1.73504,      -1.72371,  -198.008E-03,   8.31322E-09
C:/temp/dataset/test2/11_4.odb,Step-1,Increment      1: Step Time =    1.000,"PART-1-1",            25,            5.,          22.5,            0.,NA,NA,"",       1.67146,      -1.66476,   149.511E-03,   10.4752E-09
C:/temp/dataset/test2/11_4.odb,Step-1,Increment      1: Step Time =    1.000,"PART-1-1",            26,            3.,          22.5,            0.,NA,NA,"",       1.66549,      -1.66356,   80.2324E-03,   7.39212E-09
C:/temp/dataset/test2/11_4.odb,Step-1,Increment      1: Step Time =    1.000,"PART-1-1",            27,            1.,          22.5,            0.,NA,NA,"",       1.66240,      -1.66236,   10.9536E-03,   6.25117E-09
C:/temp/dataset/test2/11_4.odb,Step-1,Increment      1: Step Time =    1.000,"PART-1-1",            28,           -1.,          22.5,            0.,NA,NA,"",       1.66218,      -1.66116,  -58.3252E-03,   6.01312E-09
C:/temp/dataset/test2/11_4.odb,Step-1,Increment      1: Step Time =    1.000,"PART-1-1",            29,           -3.,          22.5,            0.,NA,NA,"",       1.66486,      -1.65996,  -127.604E-03,   6.57014E-09
C:/temp/dataset/test2/11_4.odb,Step-1,Increment      1: Step Time =    1.000,"PART-1-1",            30,           -5.,          22.5,            0.,NA,NA,"",       1.67040,      -1.65876,  -196.883E-03,   8.55765E-09
C:/temp/dataset/test2/11_4.odb,Step-1,Increment      1: Step Time =    1.000,"PART-1-1",            31,            5.,        20.625,            0.,NA,NA,"",       1.60689,      -1.59981,   150.636E-03,   9.89110E-09
C:/temp/dataset/test2/11_4.odb,Step-1,Increment      1: Step Time =    1.000,"PART-1-1",            32,            3.,        20.625,            0.,NA,NA,"",       1.60068,      -1.59861,   81.3576E-03,   8.34982E-09
C:/temp/dataset/test2/11_4.odb,Step-1,Increment      1: Step Time =    1.000,"PART-1-1",            33,            1.,        20.625,            0.,NA,NA,"",       1.59746,      -1.59741,   12.0788E-03,   10.2430E-09
C:/temp/dataset/test2/11_4.odb,Step-1,Increment      1: Step Time =    1.000,"PART-1-1",            34,           -1.,        20.625,            0.,NA,NA,"",       1.59724,      -1.59621,  -57.1999E-03,   10.0780E-09
C:/temp/dataset/test2/11_4.odb,Step-1,Increment      1: Step Time =    1.000,"PART-1-1",            35,           -3.,        20.625,            0.,NA,NA,"",       1.60002,      -1.59501,  -126.479E-03,   7.98189E-09
C:/temp/dataset/test2/11_4.odb,Step-1,Increment      1: Step Time =    1.000,"PART-1-1",            36,           -5.,        20.625,            0.,NA,NA,"",       1.60579,      -1.59381,  -195.758E-03,   7.80995E-09
C:/temp/dataset/test2/11_4.odb,Step-1,Increment      1: Step Time =    1.000,"PART-1-1",            37,            5.,         18.75,            0.,NA,NA,"",       1.54235,      -1.53486,   151.762E-03,   7.85444E-09
C:/temp/dataset/test2/11_4.odb,Step-1,Increment      1: Step Time =    1.000,"PART-1-1",            38,            3.,         18.75,            0.,NA,NA,"",       1.53588,      -1.53366,   82.4829E-03,   22.3508E-09
C:/temp/dataset/test2/11_4.odb,Step-1,Increment      1: Step Time =    1.000,"PART-1-1",            39,            1.,         18.75,            0.,NA,NA,"",       1.53252,      -1.53246,   13.2041E-03,   29.4399E-09
C:/temp/dataset/test2/11_4.odb,Step-1,Increment      1: Step Time =    1.000,"PART-1-1",            40,           -1.,         18.75,            0.,NA,NA,"",       1.53229,      -1.53126,  -56.0747E-03,   29.2640E-09
C:/temp/dataset/test2/11_4.odb,Step-1,Increment      1: Step Time =    1.000,"PART-1-1",            41,           -3.,         18.75,            0.,NA,NA,"",       1.53519,      -1.53006,  -125.354E-03,   22.6644E-09
C:/temp/dataset/test2/11_4.odb,Step-1,Increment      1: Step Time =    1.000,"PART-1-1",            42,           -5.,         18.75,            0.,NA,NA,"",       1.54120,      -1.52886,  -194.632E-03,   9.45881E-09
C:/temp/dataset/test2/11_4.odb,Step-1,Increment      1: Step Time =    1.000,"PART-1-1",            43,            5.,        16.875,            0.,NA,NA,"",       1.47784,      -1.46991,   152.887E-03,   32.2274E-09
C:/temp/dataset/test2/11_4.odb,Step-1,Increment      1: Step Time =    1.000,"PART-1-1",            44,            3.,        16.875,            0.,NA,NA,"",       1.47109,      -1.46871,   83.6081E-03,   59.4558E-09
C:/temp/dataset/test2/11_4.odb,Step-1,Increment      1: Step Time =    1.000,"PART-1-1",            45,            1.,        16.875,            0.,NA,NA,"",       1.46758,      -1.46751,   14.3292E-03,   72.5425E-09
C:/temp/dataset/test2/11_4.odb,Step-1,Increment      1: Step Time =    1.000,"PART-1-1",            46,           -1.,        16.875,            0.,NA,NA,"",       1.46734,      -1.46631,  -54.9496E-03,   72.2595E-09
C:/temp/dataset/test2/11_4.odb,Step-1,Increment      1: Step Time =    1.000,"PART-1-1",            47,           -3.,        16.875,            0.,NA,NA,"",       1.47037,      -1.46511,  -124.228E-03,   59.9741E-09
C:/temp/dataset/test2/11_4.odb,Step-1,Increment      1: Step Time =    1.000,"PART-1-1",            48,           -5.,        16.875,            0.,NA,NA,"",       1.47665,      -1.46391,  -193.507E-03,   36.7526E-09
C:/temp/dataset/test2/11_4.odb,Step-1,Increment      1: Step Time =    1.000,"PART-1-1",            49,            5.,           15.,            0.,NA,NA,"",       1.41338,      -1.40497,   154.012E-03,   107.245E-09
C:/temp/dataset/test2/11_4.odb,Step-1,Increment      1: Step Time =    1.000,"PART-1-1",            50,            3.,           15.,            0.,NA,NA,"",       1.40632,      -1.40376,   84.7333E-03,   130.381E-09
C:/temp/dataset/test2/11_4.odb,Step-1,Increment      1: Step Time =    1.000,"PART-1-1",            51,            1.,           15.,            0.,NA,NA,"",       1.40265,      -1.40256,   15.4543E-03,   149.274E-09
C:/temp/dataset/test2/11_4.odb,Step-1,Increment      1: Step Time =    1.000,"PART-1-1",            52,           -1.,           15.,            0.,NA,NA,"",       1.40240,      -1.40136,  -53.8245E-03,   148.816E-09
C:/temp/dataset/test2/11_4.odb,Step-1,Increment      1: Step Time =    1.000,"PART-1-1",            53,           -3.,           15.,            0.,NA,NA,"",       1.40557,      -1.40016,  -123.103E-03,   130.911E-09
C:/temp/dataset/test2/11_4.odb,Step-1,Increment      1: Step Time =    1.000,"PART-1-1",            54,           -5.,           15.,            0.,NA,NA,"",       1.41213,      -1.39896,  -192.382E-03,   112.562E-09
C:/temp/dataset/test2/11_4.odb,Step-1,Increment      1: Step Time =    1.000,"PART-1-1",            55,            5.,        13.125,            0.,NA,NA,"",       1.34897,      -1.34002,   155.138E-03,   268.588E-09
C:/temp/dataset/test2/11_4.odb,Step-1,Increment      1: Step Time =    1.000,"PART-1-1",            56,            3.,        13.125,            0.,NA,NA,"",       1.34157,      -1.33882,   85.8585E-03,   233.645E-09
C:/temp/dataset/test2/11_4.odb,Step-1,Increment      1: Step Time =    1.000,"PART-1-1",            57,            1.,        13.125,            0.,NA,NA,"",       1.33772,      -1.33762,   16.5793E-03,   251.474E-09
C:/temp/dataset/test2/11_4.odb,Step-1,Increment      1: Step Time =    1.000,"PART-1-1",            58,           -1.,        13.125,            0.,NA,NA,"",       1.33745,      -1.33642,  -52.6995E-03,   250.666E-09
C:/temp/dataset/test2/11_4.odb,Step-1,Increment      1: Step Time =    1.000,"PART-1-1",            59,           -3.,        13.125,            0.,NA,NA,"",       1.34077,      -1.33521,  -121.978E-03,   233.841E-09
C:/temp/dataset/test2/11_4.odb,Step-1,Increment      1: Step Time =    1.000,"PART-1-1",            60,           -5.,        13.125,            0.,NA,NA,"",       1.34766,      -1.33401,  -191.256E-03,   274.411E-09
C:/temp/dataset/test2/11_4.odb,Step-1,Increment      1: Step Time =    1.000,"PART-1-1",            61,            5.,         11.25,            0.,NA,NA,"",       1.28461,      -1.27507,   156.264E-03,   550.122E-09
C:/temp/dataset/test2/11_4.odb,Step-1,Increment      1: Step Time =    1.000,"PART-1-1",            62,            3.,         11.25,            0.,NA,NA,"",       1.27683,      -1.27387,   86.9838E-03,   306.801E-09
C:/temp/dataset/test2/11_4.odb,Step-1,Increment      1: Step Time =    1.000,"PART-1-1",            63,            1.,         11.25,            0.,NA,NA,"",       1.27279,      -1.27267,   17.7041E-03,   313.486E-09
C:/temp/dataset/test2/11_4.odb,Step-1,Increment      1: Step Time =    1.000,"PART-1-1",            64,           -1.,         11.25,            0.,NA,NA,"",       1.27251,      -1.27147,  -51.5746E-03,   311.785E-09
C:/temp/dataset/test2/11_4.odb,Step-1,Increment      1: Step Time =    1.000,"PART-1-1",            65,           -3.,         11.25,            0.,NA,NA,"",       1.27600,      -1.27027,  -120.853E-03,   305.572E-09
C:/temp/dataset/test2/11_4.odb,Step-1,Increment      1: Step Time =    1.000,"PART-1-1",            66,           -5.,         11.25,            0.,NA,NA,"",       1.28323,      -1.26907,  -190.130E-03,   555.446E-09
C:/temp/dataset/test2/11_4.odb,Step-1,Increment      1: Step Time =    1.000,"PART-1-1",            67,            5.,         9.375,            0.,NA,NA,"",       1.22031,      -1.21012,   157.390E-03,   898.568E-09
C:/temp/dataset/test2/11_4.odb,Step-1,Increment      1: Step Time =    1.000,"PART-1-1",            68,            3.,         9.375,            0.,NA,NA,"",       1.21212,      -1.20892,   88.1091E-03,   181.635E-09
C:/temp/dataset/test2/11_4.odb,Step-1,Increment      1: Step Time =    1.000,"PART-1-1",            69,            1.,         9.375,            0.,NA,NA,"",       1.20786,      -1.20772,   18.8291E-03,   444.843E-09
C:/temp/dataset/test2/11_4.odb,Step-1,Increment      1: Step Time =    1.000,"PART-1-1",            70,           -1.,         9.375,            0.,NA,NA,"",       1.20757,      -1.20652,  -50.4497E-03,   443.505E-09
C:/temp/dataset/test2/11_4.odb,Step-1,Increment      1: Step Time =    1.000,"PART-1-1",            71,           -3.,         9.375,            0.,NA,NA,"",       1.21125,      -1.20532,  -119.727E-03,   179.466E-09
C:/temp/dataset/test2/11_4.odb,Step-1,Increment      1: Step Time =    1.000,"PART-1-1",            72,           -5.,         9.375,            0.,NA,NA,"",       1.21886,      -1.20412,  -189.004E-03,   899.379E-09
C:/temp/dataset/test2/11_4.odb,Step-1,Increment      1: Step Time =    1.000,"PART-1-1",            73,            5.,           7.5,            0.,NA,NA,"",       1.15608,      -1.14516,   158.517E-03,   935.868E-09
C:/temp/dataset/test2/11_4.odb,Step-1,Increment      1: Step Time =    1.000,"PART-1-1",            74,            3.,           7.5,            0.,NA,NA,"",       1.14744,      -1.14397,   89.2344E-03,   1.21159E-06
C:/temp/dataset/test2/11_4.odb,Step-1,Increment      1: Step Time =    1.000,"PART-1-1",            75,            1.,           7.5,            0.,NA,NA,"",       1.14294,      -1.14277,   19.9550E-03,   2.01598E-06
C:/temp/dataset/test2/11_4.odb,Step-1,Increment      1: Step Time =    1.000,"PART-1-1",            76,           -1.,           7.5,            0.,NA,NA,"",       1.14264,      -1.14157,  -49.3239E-03,   2.01637E-06
C:/temp/dataset/test2/11_4.odb,Step-1,Increment      1: Step Time =    1.000,"PART-1-1",            77,           -3.,           7.5,            0.,NA,NA,"",       1.14652,      -1.14037,  -118.602E-03,   1.22380E-06
C:/temp/dataset/test2/11_4.odb,Step-1,Increment      1: Step Time =    1.000,"PART-1-1",            78,           -5.,           7.5,            0.,NA,NA,"",       1.15456,      -1.13917,  -187.877E-03,   919.649E-09
C:/temp/dataset/test2/11_4.odb,Step-1,Increment      1: Step Time =    1.000,"PART-1-1",            79,            5.,         5.625,            0.,NA,NA,"",       1.09194,      -1.08021,   159.644E-03,   741.458E-09
C:/temp/dataset/test2/11_4.odb,Step-1,Increment      1: Step Time =    1.000,"PART-1-1",            80,            3.,         5.625,            0.,NA,NA,"",       1.08278,      -1.07901,   90.3599E-03,   5.08714E-06
C:/temp/dataset/test2/11_4.odb,Step-1,Increment      1: Step Time =    1.000,"PART-1-1",            81,            1.,         5.625,            0.,NA,NA,"",       1.07802,      -1.07781,   21.0845E-03,   6.82292E-06
C:/temp/dataset/test2/11_4.odb,Step-1,Increment      1: Step Time =    1.000,"PART-1-1",            82,           -1.,         5.625,            0.,NA,NA,"",       1.07770,      -1.07663,  -48.1947E-03,   6.80180E-06
C:/temp/dataset/test2/11_4.odb,Step-1,Increment      1: Step Time =    1.000,"PART-1-1",            83,           -3.,         5.625,            0.,NA,NA,"",       1.08183,      -1.07543,  -117.477E-03,   5.08510E-06
C:/temp/dataset/test2/11_4.odb,Step-1,Increment      1: Step Time =    1.000,"PART-1-1",            84,           -5.,         5.625,            0.,NA,NA,"",       1.09034,      -1.07423,  -186.751E-03,   790.144E-09
C:/temp/dataset/test2/11_4.odb,Step-1,Increment      1: Step Time =    1.000,"PART-1-1",            85,            5.,          3.75,            0.,NA,NA,"",       1.02789,      -1.01524,   160.765E-03,   7.20765E-06
C:/temp/dataset/test2/11_4.odb,Step-1,Increment      1: Step Time =    1.000,"PART-1-1",            86,            3.,          3.75,            0.,NA,NA,"",       1.01816,      -1.01404,   91.4853E-03,   14.7708E-06
C:/temp/dataset/test2/11_4.odb,Step-1,Increment      1: Step Time =    1.000,"PART-1-1",            87,            1.,          3.75,            0.,NA,NA,"",       1.01310,      -1.01286,   22.2232E-03,   18.0594E-06
C:/temp/dataset/test2/11_4.odb,Step-1,Increment      1: Step Time =    1.000,"PART-1-1",            88,           -1.,          3.75,            0.,NA,NA,"",       1.01278,      -1.01169,  -47.0567E-03,   17.9118E-06
C:/temp/dataset/test2/11_4.odb,Step-1,Increment      1: Step Time =    1.000,"PART-1-1",            89,           -3.,          3.75,            0.,NA,NA,"",       1.01718,      -1.01050,  -116.353E-03,   14.5329E-06
C:/temp/dataset/test2/11_4.odb,Step-1,Increment      1: Step Time =    1.000,"PART-1-1",            90,           -5.,          3.75,            0.,NA,NA,"",       1.02623,      -1.00930,  -185.631E-03,   7.23309E-06
C:/temp/dataset/test2/11_4.odb,Step-1,Increment      1: Step Time =    1.000,"PART-1-1",            91,            5.,         1.875,            0.,NA,NA,"",   963.955E-03,  -950.267E-03,   161.867E-03,   25.8199E-06
C:/temp/dataset/test2/11_4.odb,Step-1,Increment      1: Step Time =    1.000,"PART-1-1",            92,            3.,         1.875,            0.,NA,NA,"",   953.566E-03,  -949.058E-03,   92.6110E-03,   35.1966E-06
C:/temp/dataset/test2/11_4.odb,Step-1,Increment      1: Step Time =    1.000,"PART-1-1",            93,            1.,         1.875,            0.,NA,NA,"",   948.185E-03,  -947.897E-03,   23.3827E-03,   40.1651E-06
C:/temp/dataset/test2/11_4.odb,Step-1,Increment      1: Step Time =    1.000,"PART-1-1",            94,           -1.,         1.875,            0.,NA,NA,"",   947.866E-03,  -946.754E-03,  -45.8998E-03,   39.2754E-06
C:/temp/dataset/test2/11_4.odb,Step-1,Increment      1: Step Time =    1.000,"PART-1-1",            95,           -3.,         1.875,            0.,NA,NA,"",   952.580E-03,  -945.584E-03,  -115.231E-03,   33.4386E-06
C:/temp/dataset/test2/11_4.odb,Step-1,Increment      1: Step Time =    1.000,"PART-1-1",            96,           -5.,         1.875,            0.,NA,NA,"",   962.233E-03,  -944.374E-03,  -184.530E-03,   25.2789E-06
C:/temp/dataset/test2/11_4.odb,Step-1,Increment      1: Step Time =    1.000,"PART-1-1",            97,            5.,            0.,            0.,NA,NA,"",   900.158E-03,  -885.293E-03,   162.917E-03,   71.4424E-06
C:/temp/dataset/test2/11_4.odb,Step-1,Increment      1: Step Time =    1.000,"PART-1-1",            98,            3.,            0.,            0.,NA,NA,"",   889.024E-03,  -884.069E-03,   93.7362E-03,   70.7159E-06
C:/temp/dataset/test2/11_4.odb,Step-1,Increment      1: Step Time =    1.000,"PART-1-1",            99,            1.,            0.,            0.,NA,NA,"",   883.279E-03,  -882.937E-03,   24.5804E-03,   74.9290E-06
C:/temp/dataset/test2/11_4.odb,Step-1,Increment      1: Step Time =    1.000,"PART-1-1",           100,           -1.,            0.,            0.,NA,NA,"",   882.961E-03,  -881.829E-03,  -44.7100E-03,   71.3442E-06
C:/temp/dataset/test2/11_4.odb,Step-1,Increment      1: Step Time =    1.000,"PART-1-1",           101,           -3.,            0.,            0.,NA,NA,"",   888.035E-03,  -880.673E-03,  -114.112E-03,   62.9925E-06
C:/temp/dataset/test2/11_4.odb,Step-1,Increment      1: Step Time =    1.000,"PART-1-1",           102,           -5.,            0.,            0.,NA,NA,"",   898.377E-03,  -879.442E-03,  -183.476E-03,   65.4248E-06
C:/temp/dataset/test2/11_4.odb,Step-1,Increment      1: Step Time =    1.000,"PART-1-1",           103,            5.,        -1.875,            0.,NA,NA,"",   836.567E-03,  -820.362E-03,   163.861E-03,   163.182E-06
C:/temp/dataset/test2/11_4.odb,Step-1,Increment      1: Step Time =    1.000,"PART-1-1",           104,            3.,        -1.875,            0.,NA,NA,"",   824.590E-03,  -819.114E-03,   94.8695E-03,   119.370E-06
C:/temp/dataset/test2/11_4.odb,Step-1,Increment      1: Step Time =    1.000,"PART-1-1",           105,            1.,        -1.875,            0.,NA,NA,"",   818.412E-03,  -818.004E-03,   25.8328E-03,   111.577E-06
C:/temp/dataset/test2/11_4.odb,Step-1,Increment      1: Step Time =    1.000,"PART-1-1",           106,           -1.,        -1.875,            0.,NA,NA,"",   818.051E-03,  -816.895E-03,  -43.4809E-03,   99.4954E-06
C:/temp/dataset/test2/11_4.odb,Step-1,Increment      1: Step Time =    1.000,"PART-1-1",           107,           -3.,        -1.875,            0.,NA,NA,"",   823.513E-03,  -815.723E-03,  -113.002E-03,   89.7659E-06
C:/temp/dataset/test2/11_4.odb,Step-1,Increment      1: Step Time =    1.000,"PART-1-1",           108,           -5.,        -1.875,            0.,NA,NA,"",   834.650E-03,  -814.451E-03,  -182.512E-03,   135.963E-06
C:/temp/dataset/test2/11_4.odb,Step-1,Increment      1: Step Time =    1.000,"PART-1-1",           109,            5.,         -3.75,            0.,NA,NA,"",   773.385E-03,  -755.680E-03,   164.534E-03,   348.808E-06
C:/temp/dataset/test2/11_4.odb,Step-1,Increment      1: Step Time =    1.000,"PART-1-1",           110,            3.,         -3.75,            0.,NA,NA,"",   760.451E-03,  -754.366E-03,   96.0082E-03,   117.162E-06
C:/temp/dataset/test2/11_4.odb,Step-1,Increment      1: Step Time =    1.000,"PART-1-1",           111,            1.,         -3.75,            0.,NA,NA,"",   753.653E-03,  -753.165E-03,   27.1096E-03,   131.788E-06
C:/temp/dataset/test2/11_4.odb,Step-1,Increment      1: Step Time =    1.000,"PART-1-1",           112,           -1.,         -3.75,            0.,NA,NA,"",   753.066E-03,  -751.879E-03,  -42.2513E-03,   96.3205E-06
C:/temp/dataset/test2/11_4.odb,Step-1,Increment      1: Step Time =    1.000,"PART-1-1",           113,           -3.,         -3.75,            0.,NA,NA,"",   758.895E-03,  -750.599E-03,  -111.907E-03,   68.9130E-06
C:/temp/dataset/test2/11_4.odb,Step-1,Increment      1: Step Time =    1.000,"PART-1-1",           114,           -5.,         -3.75,            0.,NA,NA,"",   770.978E-03,  -749.265E-03,  -181.684E-03,   223.066E-06
C:/temp/dataset/test2/11_4.odb,Step-1,Increment      1: Step Time =    1.000,"PART-1-1",           115,            5.,        -5.625,            0.,NA,NA,"",   711.168E-03,  -691.783E-03,   164.915E-03,   792.456E-06
C:/temp/dataset/test2/11_4.odb,Step-1,Increment      1: Step Time =    1.000,"PART-1-1",           116,            3.,        -5.625,            0.,NA,NA,"",   697.046E-03,  -690.233E-03,   97.2173E-03,   499.433E-06
C:/temp/dataset/test2/11_4.odb,Step-1,Increment      1: Step Time =    1.000,"PART-1-1",           117,            1.,        -5.625,            0.,NA,NA,"",   689.038E-03,  -688.461E-03,   28.1886E-03,   474.115E-06
C:/temp/dataset/test2/11_4.odb,Step-1,Increment      1: Step Time =    1.000,"PART-1-1",           118,           -1.,        -5.625,            0.,NA,NA,"",   687.780E-03,  -686.548E-03,  -41.1520E-03,   341.071E-06
C:/temp/dataset/test2/11_4.odb,Step-1,Increment      1: Step Time =    1.000,"PART-1-1",           119,           -3.,        -5.625,            0.,NA,NA,"",   693.912E-03,  -685.007E-03,  -110.812E-03,   154.271E-06
C:/temp/dataset/test2/11_4.odb,Step-1,Increment      1: Step Time =    1.000,"PART-1-1",           120,           -5.,        -5.625,            0.,NA,NA,"",   707.178E-03,  -683.630E-03,  -180.972E-03,   252.279E-06
C:/temp/dataset/test2/11_4.odb,Step-1,Increment      1: Step Time =    1.000,"PART-1-1",           121,            5.,          -7.5,            0.,NA,NA,"",   652.917E-03,  -631.908E-03,   164.294E-03,   2.16879E-03
C:/temp/dataset/test2/11_4.odb,Step-1,Increment      1: Step Time =    1.000,"PART-1-1",           122,            3.,          -7.5,            0.,NA,NA,"",   635.084E-03,  -627.557E-03,   97.4880E-03,   2.31986E-03
C:/temp/dataset/test2/11_4.odb,Step-1,Increment      1: Step Time =    1.000,"PART-1-1",           123,            1.,          -7.5,            0.,NA,NA,"",   624.004E-03,  -623.355E-03,   28.4417E-03,   1.50240E-03
C:/temp/dataset/test2/11_4.odb,Step-1,Increment      1: Step Time =    1.000,"PART-1-1",           124,           -1.,          -7.5,            0.,NA,NA,"",   621.652E-03,  -620.340E-03,  -40.3611E-03,   1.04419E-03
C:/temp/dataset/test2/11_4.odb,Step-1,Increment      1: Step Time =    1.000,"PART-1-1",           125,           -3.,          -7.5,            0.,NA,NA,"",   628.136E-03,  -618.497E-03,  -109.616E-03,   625.161E-06
C:/temp/dataset/test2/11_4.odb,Step-1,Increment      1: Step Time =    1.000,"PART-1-1",           126,           -5.,          -7.5,            0.,NA,NA,"",   642.967E-03,  -617.211E-03,  -180.157E-03,   70.3428E-06
C:/temp/dataset/test2/11_4.odb,Step-1,Increment      1: Step Time =    1.000,"PART-1-1",           127,            5.,        -9.375,            0.,NA,NA,"",   593.491E-03,  -569.790E-03,   166.044E-03,   4.25973E-03
C:/temp/dataset/test2/11_4.odb,Step-1,Increment      1: Step Time =    1.000,"PART-1-1",           128,            3.,        -9.375,            0.,NA,NA,"",   570.451E-03,  -562.381E-03,   95.6112E-03,   4.31346E-03
C:/temp/dataset/test2/11_4.odb,Step-1,Increment      1: Step Time =    1.000,"PART-1-1",           129,            1.,        -9.375,            0.,NA,NA,"",   556.786E-03,  -556.103E-03,   27.5564E-03,   2.89107E-03
C:/temp/dataset/test2/11_4.odb,Step-1,Increment      1: Step Time =    1.000,"PART-1-1",           130,           -1.,        -9.375,            0.,NA,NA,"",   553.921E-03,  -552.490E-03,  -39.7922E-03,   2.07980E-03
C:/temp/dataset/test2/11_4.odb,Step-1,Increment      1: Step Time =    1.000,"PART-1-1",           131,           -3.,        -9.375,            0.,NA,NA,"",   561.187E-03,  -550.693E-03,  -108.019E-03,   1.38603E-03
C:/temp/dataset/test2/11_4.odb,Step-1,Increment      1: Step Time =    1.000,"PART-1-1",           132,           -5.,        -9.375,            0.,NA,NA,"",   578.122E-03,  -549.809E-03,  -178.702E-03,   533.221E-06
C:/temp/dataset/test2/11_4.odb,Step-1,Increment      1: Step Time =    1.000,"PART-1-1",           133,            5.,        -11.25,            0.,NA,NA,"",   523.589E-03,  -496.319E-03,   166.774E-03,   2.96891E-03
C:/temp/dataset/test2/11_4.odb,Step-1,Increment      1: Step Time =    1.000,"PART-1-1",           134,            3.,        -11.25,            0.,NA,NA,"",   499.268E-03,  -490.508E-03,   93.1154E-03,   4.62246E-03
C:/temp/dataset/test2/11_4.odb,Step-1,Increment      1: Step Time =    1.000,"PART-1-1",           135,            1.,        -11.25,            0.,NA,NA,"",   486.509E-03,  -485.787E-03,   26.4912E-03,   3.89998E-03
C:/temp/dataset/test2/11_4.odb,Step-1,Increment      1: Step Time =    1.000,"PART-1-1",           136,           -1.,        -11.25,            0.,NA,NA,"",   484.454E-03,  -482.891E-03,  -38.8805E-03,   3.08462E-03
C:/temp/dataset/test2/11_4.odb,Step-1,Increment      1: Step Time =    1.000,"PART-1-1",           137,           -3.,        -11.25,            0.,NA,NA,"",   493.168E-03,  -481.745E-03,  -105.531E-03,   2.29097E-03
C:/temp/dataset/test2/11_4.odb,Step-1,Increment      1: Step Time =    1.000,"PART-1-1",           138,           -5.,        -11.25,            0.,NA,NA,"",   512.758E-03,  -481.678E-03,  -175.805E-03,   1.61839E-03
C:/temp/dataset/test2/11_4.odb,Step-1,Increment      1: Step Time =    1.000,"PART-1-1",           139,            5.,       -13.125,            0.,NA,NA,"",   451.620E-03,  -421.405E-03,   162.414E-03,   3.94189E-03
C:/temp/dataset/test2/11_4.odb,Step-1,Increment      1: Step Time =    1.000,"PART-1-1",           140,            3.,       -13.125,            0.,NA,NA,"",   427.151E-03,  -417.303E-03,   91.1938E-03,   3.42260E-03
C:/temp/dataset/test2/11_4.odb,Step-1,Increment      1: Step Time =    1.000,"PART-1-1",           141,            1.,       -13.125,            0.,NA,NA,"",   415.274E-03,  -414.453E-03,   26.1012E-03,   4.08876E-03
C:/temp/dataset/test2/11_4.odb,Step-1,Increment      1: Step Time =    1.000,"PART-1-1",           142,           -1.,       -13.125,            0.,NA,NA,"",   414.411E-03,  -412.746E-03,  -37.1078E-03,   3.73528E-03
C:/temp/dataset/test2/11_4.odb,Step-1,Increment      1: Step Time =    1.000,"PART-1-1",           143,           -3.,       -13.125,            0.,NA,NA,"",   424.937E-03,  -412.589E-03,  -101.692E-03,   3.18121E-03
C:/temp/dataset/test2/11_4.odb,Step-1,Increment      1: Step Time =    1.000,"PART-1-1",           144,           -5.,       -13.125,            0.,NA,NA,"",   447.504E-03,  -413.673E-03,  -170.688E-03,   3.11062E-03
C:/temp/dataset/test2/11_4.odb,Step-1,Increment      1: Step Time =    1.000,"PART-1-1",           145,            5.,          -15.,            0.,NA,NA,"",   385.527E-03,  -352.625E-03,   155.842E-03,   5.40701E-03
C:/temp/dataset/test2/11_4.odb,Step-1,Increment      1: Step Time =    1.000,"PART-1-1",           146,            3.,          -15.,            0.,NA,NA,"",   358.743E-03,  -347.703E-03,   88.3154E-03,   3.89114E-03
C:/temp/dataset/test2/11_4.odb,Step-1,Increment      1: Step Time =    1.000,"PART-1-1",           147,            1.,          -15.,            0.,NA,NA,"",   345.860E-03,  -344.888E-03,   25.9113E-03,   3.98139E-03
C:/temp/dataset/test2/11_4.odb,Step-1,Increment      1: Step Time =    1.000,"PART-1-1",           148,           -1.,          -15.,            0.,NA,NA,"",   345.612E-03,  -343.887E-03,  -34.4821E-03,   4.02758E-03
C:/temp/dataset/test2/11_4.odb,Step-1,Increment      1: Step Time =    1.000,"PART-1-1",           149,           -3.,          -15.,            0.,NA,NA,"",   357.870E-03,  -344.679E-03,  -96.2698E-03,   4.01385E-03
C:/temp/dataset/test2/11_4.odb,Step-1,Increment      1: Step Time =    1.000,"PART-1-1",           150,           -5.,          -15.,            0.,NA,NA,"",   383.397E-03,  -347.086E-03,  -162.863E-03,   4.82193E-03
C:/temp/dataset/test2/11_4.odb,Step-1,Increment      1: Step Time =    1.000,"PART-1-1",           151,            5.,       -16.875,            0.,NA,NA,"",   322.940E-03,  -287.774E-03,   146.547E-03,   6.92348E-03
C:/temp/dataset/test2/11_4.odb,Step-1,Increment      1: Step Time =    1.000,"PART-1-1",           152,            3.,       -16.875,            0.,NA,NA,"",   293.974E-03,  -281.867E-03,   83.4964E-03,   4.74768E-03
C:/temp/dataset/test2/11_4.odb,Step-1,Increment      1: Step Time =    1.000,"PART-1-1",           153,            1.,       -16.875,            0.,NA,NA,"",   279.791E-03,  -278.652E-03,   25.2169E-03,   4.01633E-03
C:/temp/dataset/test2/11_4.odb,Step-1,Increment      1: Step Time =    1.000,"PART-1-1",           154,           -1.,       -16.875,            0.,NA,NA,"",   279.676E-03,  -277.923E-03,  -31.2600E-03,   4.15310E-03
C:/temp/dataset/test2/11_4.odb,Step-1,Increment      1: Step Time =    1.000,"PART-1-1",           155,           -3.,       -16.875,            0.,NA,NA,"",   293.423E-03,  -279.526E-03,  -89.2314E-03,   4.83840E-03
C:/temp/dataset/test2/11_4.odb,Step-1,Increment      1: Step Time =    1.000,"PART-1-1",           156,           -5.,       -16.875,            0.,NA,NA,"",   321.595E-03,  -283.317E-03,  -152.167E-03,   6.59250E-03
C:/temp/dataset/test2/11_4.odb,Step-1,Increment      1: Step Time =    1.000,"PART-1-1",           157,            5.,        -18.75,            0.,NA,NA,"",   264.205E-03,  -227.397E-03,   134.518E-03,   8.52169E-03
C:/temp/dataset/test2/11_4.odb,Step-1,Increment      1: Step Time =    1.000,"PART-1-1",           158,            3.,        -18.75,            0.,NA,NA,"",   233.461E-03,  -220.469E-03,   76.7974E-03,   5.67296E-03
C:/temp/dataset/test2/11_4.odb,Step-1,Increment      1: Step Time =    1.000,"PART-1-1",           159,            1.,        -18.75,            0.,NA,NA,"",   218.054E-03,  -216.755E-03,   23.7630E-03,   4.15356E-03
C:/temp/dataset/test2/11_4.odb,Step-1,Increment      1: Step Time =    1.000,"PART-1-1",           160,           -1.,        -18.75,            0.,NA,NA,"",   217.898E-03,  -216.140E-03,  -27.6231E-03,   4.24992E-03
C:/temp/dataset/test2/11_4.odb,Step-1,Increment      1: Step Time =    1.000,"PART-1-1",           161,           -3.,        -18.75,            0.,NA,NA,"",   232.881E-03,  -218.483E-03,  -80.6162E-03,   5.69584E-03
C:/temp/dataset/test2/11_4.odb,Step-1,Increment      1: Step Time =    1.000,"PART-1-1",           162,           -5.,        -18.75,            0.,NA,NA,"",   263.147E-03,  -223.671E-03,  -138.627E-03,   8.34614E-03
C:/temp/dataset/test2/11_4.odb,Step-1,Increment      1: Step Time =    1.000,"PART-1-1",           163,            5.,       -20.625,            0.,NA,NA,"",   209.789E-03,  -172.371E-03,   119.582E-03,   10.1664E-03
C:/temp/dataset/test2/11_4.odb,Step-1,Increment      1: Step Time =    1.000,"PART-1-1",           164,            3.,       -20.625,            0.,NA,NA,"",   178.004E-03,  -164.420E-03,   68.2017E-03,   6.61576E-03
C:/temp/dataset/test2/11_4.odb,Step-1,Increment      1: Step Time =    1.000,"PART-1-1",           165,            1.,       -20.625,            0.,NA,NA,"",   161.635E-03,  -160.199E-03,   21.4930E-03,   4.33574E-03
C:/temp/dataset/test2/11_4.odb,Step-1,Increment      1: Step Time =    1.000,"PART-1-1",           166,           -1.,       -20.625,            0.,NA,NA,"",   161.408E-03,  -159.667E-03,  -23.6404E-03,   4.37173E-03
C:/temp/dataset/test2/11_4.odb,Step-1,Increment      1: Step Time =    1.000,"PART-1-1",           167,           -3.,       -20.625,            0.,NA,NA,"",   177.339E-03,  -162.739E-03,  -70.4640E-03,   6.59054E-03
C:/temp/dataset/test2/11_4.odb,Step-1,Increment      1: Step Time =    1.000,"PART-1-1",           168,           -5.,       -20.625,            0.,NA,NA,"",   208.888E-03,  -169.329E-03,  -122.318E-03,   10.0710E-03
C:/temp/dataset/test2/11_4.odb,Step-1,Increment      1: Step Time =    1.000,"PART-1-1",           169,            5.,         -22.5,            0.,NA,NA,"",   160.161E-03,  -123.732E-03,   101.695E-03,   11.8081E-03
C:/temp/dataset/test2/11_4.odb,Step-1,Increment      1: Step Time =    1.000,"PART-1-1",           170,            3.,         -22.5,            0.,NA,NA,"",   128.436E-03,  -114.754E-03,   57.6833E-03,   7.58667E-03
C:/temp/dataset/test2/11_4.odb,Step-1,Increment      1: Step Time =    1.000,"PART-1-1",           171,            1.,         -22.5,            0.,NA,NA,"",   111.537E-03,  -110.010E-03,   18.3919E-03,   4.54703E-03
C:/temp/dataset/test2/11_4.odb,Step-1,Increment      1: Step Time =    1.000,"PART-1-1",           172,           -1.,         -22.5,            0.,NA,NA,"",   111.254E-03,  -109.565E-03,  -19.3100E-03,   4.53175E-03
C:/temp/dataset/test2/11_4.odb,Step-1,Increment      1: Step Time =    1.000,"PART-1-1",           173,           -3.,         -22.5,            0.,NA,NA,"",   127.717E-03,  -113.388E-03,  -58.7772E-03,   7.52686E-03
C:/temp/dataset/test2/11_4.odb,Step-1,Increment      1: Step Time =    1.000,"PART-1-1",           174,           -5.,         -22.5,            0.,NA,NA,"",   159.392E-03,  -121.373E-03,  -103.317E-03,   11.7482E-03
C:/temp/dataset/test2/11_4.odb,Step-1,Increment      1: Step Time =    1.000,"PART-1-1",           175,            5.,       -24.375,            0.,NA,NA,"",   115.579E-03,  -82.5907E-03,   80.8537E-03,   13.4753E-03
C:/temp/dataset/test2/11_4.odb,Step-1,Increment      1: Step Time =    1.000,"PART-1-1",           176,            3.,       -24.375,            0.,NA,NA,"",   85.5226E-03,  -72.5600E-03,   45.2676E-03,   8.56737E-03
C:/temp/dataset/test2/11_4.odb,Step-1,Increment      1: Step Time =    1.000,"PART-1-1",           177,            1.,       -24.375,            0.,NA,NA,"",   68.8099E-03,  -67.2702E-03,   14.4752E-03,   4.85286E-03
C:/temp/dataset/test2/11_4.odb,Step-1,Increment      1: Step Time =    1.000,"PART-1-1",           178,           -1.,       -24.375,            0.,NA,NA,"",   68.4947E-03,  -66.9129E-03,  -14.6349E-03,   4.79463E-03
C:/temp/dataset/test2/11_4.odb,Step-1,Increment      1: Step Time =    1.000,"PART-1-1",           179,           -3.,       -24.375,            0.,NA,NA,"",   84.8026E-03,  -71.5044E-03,  -45.5918E-03,   8.47943E-03
C:/temp/dataset/test2/11_4.odb,Step-1,Increment      1: Step Time =    1.000,"PART-1-1",           180,           -5.,       -24.375,            0.,NA,NA,"",   114.954E-03,  -80.8970E-03,  -81.6700E-03,   13.4350E-03
C:/temp/dataset/test2/11_4.odb,Step-1,Increment      1: Step Time =    1.000,"PART-1-1",           181,            5.,        -26.25,            0.,NA,NA,"",   75.7933E-03,  -49.6126E-03,   57.2993E-03,   14.7307E-03
C:/temp/dataset/test2/11_4.odb,Step-1,Increment      1: Step Time =    1.000,"PART-1-1",           182,            3.,        -26.25,            0.,NA,NA,"",   49.3719E-03,  -38.7036E-03,   30.6531E-03,   9.86301E-03
C:/temp/dataset/test2/11_4.odb,Step-1,Increment      1: Step Time =    1.000,"PART-1-1",           183,            1.,        -26.25,            0.,NA,NA,"",   34.4334E-03,  -33.0549E-03,   9.64520E-03,   4.97732E-03
C:/temp/dataset/test2/11_4.odb,Step-1,Increment      1: Step Time =    1.000,"PART-1-1",           184,           -1.,        -26.25,            0.,NA,NA,"",   34.1213E-03,  -32.7801E-03,  -9.47226E-03,   4.87673E-03
C:/temp/dataset/test2/11_4.odb,Step-1,Increment      1: Step Time =    1.000,"PART-1-1",           185,           -3.,        -26.25,            0.,NA,NA,"",   48.7267E-03,  -37.9388E-03,  -30.5767E-03,   9.75887E-03
C:/temp/dataset/test2/11_4.odb,Step-1,Increment      1: Step Time =    1.000,"PART-1-1",           186,           -5.,        -26.25,            0.,NA,NA,"",   75.3189E-03,  -48.5048E-03,  -57.6213E-03,   14.7009E-03
C:/temp/dataset/test2/11_4.odb,Step-1,Increment      1: Step Time =    1.000,"PART-1-1",           187,            5.,       -28.125,            0.,NA,NA,"",   40.1677E-03,  -24.9172E-03,   31.5052E-03,   17.4899E-03
C:/temp/dataset/test2/11_4.odb,Step-1,Increment      1: Step Time =    1.000,"PART-1-1",           188,            3.,       -28.125,            0.,NA,NA,"",   20.8629E-03,  -14.3396E-03,   15.1538E-03,   10.8256E-03
C:/temp/dataset/test2/11_4.odb,Step-1,Increment      1: Step Time =    1.000,"PART-1-1",           189,            1.,       -28.125,            0.,NA,NA,"",   10.2400E-03,  -9.20173E-03,   4.49278E-03,   4.63421E-03
C:/temp/dataset/test2/11_4.odb,Step-1,Increment      1: Step Time =    1.000,"PART-1-1",           190,           -1.,       -28.125,            0.,NA,NA,"",   10.0153E-03,  -9.02391E-03,  -4.34452E-03,   4.52644E-03
C:/temp/dataset/test2/11_4.odb,Step-1,Increment      1: Step Time =    1.000,"PART-1-1",           191,           -3.,       -28.125,            0.,NA,NA,"",   20.4437E-03,  -13.8577E-03,  -15.0302E-03,   10.6806E-03
C:/temp/dataset/test2/11_4.odb,Step-1,Increment      1: Step Time =    1.000,"PART-1-1",           192,           -5.,       -28.125,            0.,NA,NA,"",   39.8300E-03,  -24.3342E-03,  -31.5321E-03,   17.5319E-03
C:/temp/dataset/test2/11_4.odb,Step-1,Increment      1: Step Time =    1.000,"PART-1-1",           193,            5.,          -30.,            0.,NA,NA,"",            0.,  -5.43183E-39,   9.69249E-39,   23.1939E-03
C:/temp/dataset/test2/11_4.odb,Step-1,Increment      1: Step Time =    1.000,"PART-1-1",           194,            3.,          -30.,            0.,NA,NA,"",            0.,  -5.23497E-39,   12.3691E-39,   7.30225E-03
C:/temp/dataset/test2/11_4.odb,Step-1,Increment      1: Step Time =    1.000,"PART-1-1",           195,            1.,          -30.,            0.,NA,NA,"",            0.,  -790.516E-42,   3.99986E-39,   2.67345E-03
C:/temp/dataset/test2/11_4.odb,Step-1,Increment      1: Step Time =    1.000,"PART-1-1",           196,           -1.,          -30.,            0.,NA,NA,"",            0.,   1.24419E-39,  -3.40812E-39,   2.62108E-03
C:/temp/dataset/test2/11_4.odb,Step-1,Increment      1: Step Time =    1.000,"PART-1-1",           197,           -3.,          -30.,            0.,NA,NA,"",            0.,  -2.61810E-39,  -11.3020E-39,   7.17674E-03
C:/temp/dataset/test2/11_4.odb,Step-1,Increment      1: Step Time =    1.000,"PART-1-1",           198,           -5.,          -30.,            0.,NA,NA,"",            0.,  -5.32301E-39,  -9.53178E-39,   22.9750E-03
C:/temp/dataset/test2/11_4.odb,Step-1,Increment      1: Step Time =    1.000,"PART-1-1",           199,            4.,           30.,            0.,NA,NA,"",       1.92712,      -1.92396,   110.371E-03,   8.04411E-09
C:/temp/dataset/test2/11_4.odb,Step-1,Increment      1: Step Time =    1.000,"PART-1-1",           200,            3.,       29.0625,            0.,NA,NA,"",       1.89242,      -1.89088,   76.2941E-03,   7.98593E-09
C:/temp/dataset/test2/11_4.odb,Step-1,Increment      1: Step Time =    1.000,"PART-1-1",           201,            4.,        28.125,            0.,NA,NA,"",       1.86235,      -1.85901,   111.496E-03,   8.29250E-09
C:/temp/dataset/test2/11_4.odb,Step-1,Increment      1: Step Time =    1.000,"PART-1-1",           202,            5.,       29.0625,            0.,NA,NA,"",       1.89767,      -1.89208,   145.573E-03,   8.43427E-09
C:/temp/dataset/test2/11_4.odb,Step-1,Increment      1: Step Time =    1.000,"PART-1-1",           203,            2.,           30.,            0.,NA,NA,"",       1.92319,      -1.92276,   41.0921E-03,   7.95454E-09
C:/temp/dataset/test2/11_4.odb,Step-1,Increment      1: Step Time =    1.000,"PART-1-1",           204,            1.,       29.0625,            0.,NA,NA,"",       1.88969,      -1.88968,   7.01534E-03,   8.01132E-09
C:/temp/dataset/test2/11_4.odb,Step-1,Increment      1: Step Time =    1.000,"PART-1-1",           205,            2.,        28.125,            0.,NA,NA,"",       1.85829,      -1.85781,   42.2173E-03,   8.06483E-09
C:/temp/dataset/test2/11_4.odb,Step-1,Increment      1: Step Time =    1.000,"PART-1-1",           206,            0.,           30.,            0.,NA,NA,"",       1.92176,      -1.92156,  -28.1867E-03,   8.16533E-09
C:/temp/dataset/test2/11_4.odb,Step-1,Increment      1: Step Time =    1.000,"PART-1-1",           207,           -1.,       29.0625,            0.,NA,NA,"",       1.88951,      -1.88848,  -62.2635E-03,   8.08886E-09
C:/temp/dataset/test2/11_4.odb,Step-1,Increment      1: Step Time =    1.000,"PART-1-1",           208,            0.,        28.125,            0.,NA,NA,"",       1.85680,      -1.85661,  -27.0614E-03,   7.95488E-09
C:/temp/dataset/test2/11_4.odb,Step-1,Increment      1: Step Time =    1.000,"PART-1-1",           209,           -2.,           30.,            0.,NA,NA,"",       1.92283,      -1.92036,  -97.4655E-03,   8.26727E-09
C:/temp/dataset/test2/11_4.odb,Step-1,Increment      1: Step Time =    1.000,"PART-1-1",           210,           -3.,       29.0625,            0.,NA,NA,"",       1.89186,      -1.88728,  -131.542E-03,   8.16867E-09
C:/temp/dataset/test2/11_4.odb,Step-1,Increment      1: Step Time =    1.000,"PART-1-1",           211,           -2.,        28.125,            0.,NA,NA,"",       1.85791,      -1.85541,  -96.3402E-03,   7.96428E-09
C:/temp/dataset/test2/11_4.odb,Step-1,Increment      1: Step Time =    1.000,"PART-1-1",           212,           -4.,           30.,            0.,NA,NA,"",       1.92638,      -1.91915,  -166.744E-03,   8.39889E-09
C:/temp/dataset/test2/11_4.odb,Step-1,Increment      1: Step Time =    1.000,"PART-1-1",           213,           -5.,       29.0625,            0.,NA,NA,"",       1.89674,      -1.88608,  -200.821E-03,   8.09618E-09
C:/temp/dataset/test2/11_4.odb,Step-1,Increment      1: Step Time =    1.000,"PART-1-1",           214,           -4.,        28.125,            0.,NA,NA,"",       1.86159,      -1.85421,  -165.619E-03,   7.93989E-09
C:/temp/dataset/test2/11_4.odb,Step-1,Increment      1: Step Time =    1.000,"PART-1-1",           215,            3.,       27.1875,            0.,NA,NA,"",       1.82757,      -1.82593,   77.4194E-03,   8.18503E-09
C:/temp/dataset/test2/11_4.odb,Step-1,Increment      1: Step Time =    1.000,"PART-1-1",           216,            4.,         26.25,            0.,NA,NA,"",       1.79759,      -1.79406,   112.621E-03,   8.51378E-09
C:/temp/dataset/test2/11_4.odb,Step-1,Increment      1: Step Time =    1.000,"PART-1-1",           217,            5.,       27.1875,            0.,NA,NA,"",       1.83301,      -1.82713,   146.698E-03,   8.61804E-09
C:/temp/dataset/test2/11_4.odb,Step-1,Increment      1: Step Time =    1.000,"PART-1-1",           218,            1.,       27.1875,            0.,NA,NA,"",       1.82475,      -1.82473,   8.14056E-03,   7.86907E-09
C:/temp/dataset/test2/11_4.odb,Step-1,Increment      1: Step Time =    1.000,"PART-1-1",           219,            2.,         26.25,            0.,NA,NA,"",       1.79338,      -1.79286,   43.3426E-03,   7.98201E-09
C:/temp/dataset/test2/11_4.odb,Step-1,Increment      1: Step Time =    1.000,"PART-1-1",           220,           -1.,       27.1875,            0.,NA,NA,"",       1.82456,      -1.82353,  -61.1382E-03,   7.76210E-09
C:/temp/dataset/test2/11_4.odb,Step-1,Increment      1: Step Time =    1.000,"PART-1-1",           221,            0.,         26.25,            0.,NA,NA,"",       1.79185,      -1.79166,  -25.9362E-03,   7.66275E-09
C:/temp/dataset/test2/11_4.odb,Step-1,Increment      1: Step Time =    1.000,"PART-1-1",           222,           -3.,       27.1875,            0.,NA,NA,"",       1.82699,      -1.82233,  -130.417E-03,   7.87310E-09
C:/temp/dataset/test2/11_4.odb,Step-1,Increment      1: Step Time =    1.000,"PART-1-1",           223,           -2.,         26.25,            0.,NA,NA,"",       1.79299,      -1.79046,  -95.2150E-03,   7.66395E-09
C:/temp/dataset/test2/11_4.odb,Step-1,Increment      1: Step Time =    1.000,"PART-1-1",           224,           -5.,       27.1875,            0.,NA,NA,"",       1.83205,      -1.82113,  -199.696E-03,   7.96982E-09
C:/temp/dataset/test2/11_4.odb,Step-1,Increment      1: Step Time =    1.000,"PART-1-1",           225,           -4.,         26.25,            0.,NA,NA,"",       1.79680,      -1.78926,  -164.494E-03,   7.89148E-09
C:/temp/dataset/test2/11_4.odb,Step-1,Increment      1: Step Time =    1.000,"PART-1-1",           226,            3.,       25.3125,            0.,NA,NA,"",       1.76273,      -1.76098,   78.5446E-03,   8.13826E-09
C:/temp/dataset/test2/11_4.odb,Step-1,Increment      1: Step Time =    1.000,"PART-1-1",           227,            4.,        24.375,            0.,NA,NA,"",       1.73285,      -1.72911,   113.747E-03,   8.80466E-09
C:/temp/dataset/test2/11_4.odb,Step-1,Increment      1: Step Time =    1.000,"PART-1-1",           228,            5.,       25.3125,            0.,NA,NA,"",       1.76837,      -1.76218,   147.823E-03,   9.23523E-09
C:/temp/dataset/test2/11_4.odb,Step-1,Increment      1: Step Time =    1.000,"PART-1-1",           229,            1.,       25.3125,            0.,NA,NA,"",       1.75981,      -1.75978,   9.26579E-03,   7.46324E-09
C:/temp/dataset/test2/11_4.odb,Step-1,Increment      1: Step Time =    1.000,"PART-1-1",           230,            2.,        24.375,            0.,NA,NA,"",       1.72848,      -1.72791,   44.4678E-03,   7.60589E-09
C:/temp/dataset/test2/11_4.odb,Step-1,Increment      1: Step Time =    1.000,"PART-1-1",           231,           -1.,       25.3125,            0.,NA,NA,"",       1.75961,      -1.75858,  -60.0130E-03,   7.26702E-09
C:/temp/dataset/test2/11_4.odb,Step-1,Increment      1: Step Time =    1.000,"PART-1-1",           232,            0.,        24.375,            0.,NA,NA,"",       1.72689,      -1.72671,  -24.8110E-03,   7.05671E-09
C:/temp/dataset/test2/11_4.odb,Step-1,Increment      1: Step Time =    1.000,"PART-1-1",           233,           -3.,       25.3125,            0.,NA,NA,"",       1.76213,      -1.75738,  -129.292E-03,   7.56911E-09
C:/temp/dataset/test2/11_4.odb,Step-1,Increment      1: Step Time =    1.000,"PART-1-1",           234,           -2.,        24.375,            0.,NA,NA,"",       1.72807,      -1.72551,  -94.0898E-03,   7.15589E-09
C:/temp/dataset/test2/11_4.odb,Step-1,Increment      1: Step Time =    1.000,"PART-1-1",           235,           -5.,       25.3125,            0.,NA,NA,"",       1.76737,      -1.75618,  -198.571E-03,   8.14552E-09
C:/temp/dataset/test2/11_4.odb,Step-1,Increment      1: Step Time =    1.000,"PART-1-1",           236,           -4.,        24.375,            0.,NA,NA,"",       1.73203,      -1.72431,  -163.369E-03,   7.82638E-09
C:/temp/dataset/test2/11_4.odb,Step-1,Increment      1: Step Time =    1.000,"PART-1-1",           237,            3.,       23.4375,            0.,NA,NA,"",       1.69790,      -1.69603,   79.6698E-03,   7.68055E-09
C:/temp/dataset/test2/11_4.odb,Step-1,Increment      1: Step Time =    1.000,"PART-1-1",           238,            4.,          22.5,            0.,NA,NA,"",       1.66812,      -1.66416,   114.872E-03,   8.82437E-09
C:/temp/dataset/test2/11_4.odb,Step-1,Increment      1: Step Time =    1.000,"PART-1-1",           239,            5.,       23.4375,            0.,NA,NA,"",       1.70376,      -1.69723,   148.949E-03,   9.99258E-09
C:/temp/dataset/test2/11_4.odb,Step-1,Increment      1: Step Time =    1.000,"PART-1-1",           240,            1.,       23.4375,            0.,NA,NA,"",       1.69487,      -1.69483,   10.3910E-03,   6.63257E-09
C:/temp/dataset/test2/11_4.odb,Step-1,Increment      1: Step Time =    1.000,"PART-1-1",           241,            2.,          22.5,            0.,NA,NA,"",       1.66358,      -1.66296,   45.5930E-03,   6.82489E-09
C:/temp/dataset/test2/11_4.odb,Step-1,Increment      1: Step Time =    1.000,"PART-1-1",           242,           -1.,       23.4375,            0.,NA,NA,"",       1.69466,      -1.69363,  -58.8878E-03,   6.40713E-09
C:/temp/dataset/test2/11_4.odb,Step-1,Increment      1: Step Time =    1.000,"PART-1-1",           243,            0.,          22.5,            0.,NA,NA,"",       1.66193,      -1.66176,  -23.6858E-03,   6.13620E-09
C:/temp/dataset/test2/11_4.odb,Step-1,Increment      1: Step Time =    1.000,"PART-1-1",           244,           -3.,       23.4375,            0.,NA,NA,"",       1.69728,      -1.69243,  -128.167E-03,   6.92741E-09
C:/temp/dataset/test2/11_4.odb,Step-1,Increment      1: Step Time =    1.000,"PART-1-1",           245,           -2.,          22.5,            0.,NA,NA,"",       1.66316,      -1.66056,  -92.9646E-03,   6.25980E-09
C:/temp/dataset/test2/11_4.odb,Step-1,Increment      1: Step Time =    1.000,"PART-1-1",           246,           -5.,       23.4375,            0.,NA,NA,"",       1.70272,      -1.69123,  -197.445E-03,   8.36911E-09
C:/temp/dataset/test2/11_4.odb,Step-1,Increment      1: Step Time =    1.000,"PART-1-1",           247,           -4.,          22.5,            0.,NA,NA,"",       1.66727,      -1.65936,  -162.243E-03,   7.45371E-09
C:/temp/dataset/test2/11_4.odb,Step-1,Increment      1: Step Time =    1.000,"PART-1-1",           248,            3.,       21.5625,            0.,NA,NA,"",       1.63309,      -1.63109,   80.7950E-03,   7.30240E-09
C:/temp/dataset/test2/11_4.odb,Step-1,Increment      1: Step Time =    1.000,"PART-1-1",           249,            4.,        20.625,            0.,NA,NA,"",       1.60341,      -1.59921,   115.997E-03,   8.20512E-09
C:/temp/dataset/test2/11_4.odb,Step-1,Increment      1: Step Time =    1.000,"PART-1-1",           250,            5.,       21.5625,            0.,NA,NA,"",       1.63917,      -1.63229,   150.074E-03,   10.0125E-09
C:/temp/dataset/test2/11_4.odb,Step-1,Increment      1: Step Time =    1.000,"PART-1-1",           251,            1.,       21.5625,            0.,NA,NA,"",       1.62993,      -1.62989,   11.5162E-03,   7.61220E-09
C:/temp/dataset/test2/11_4.odb,Step-1,Increment      1: Step Time =    1.000,"PART-1-1",           252,            2.,        20.625,            0.,NA,NA,"",       1.59869,      -1.59801,   46.7182E-03,   8.91573E-09
C:/temp/dataset/test2/11_4.odb,Step-1,Increment      1: Step Time =    1.000,"PART-1-1",           253,           -1.,       21.5625,            0.,NA,NA,"",       1.62971,      -1.62869,  -57.7626E-03,   7.42231E-09
C:/temp/dataset/test2/11_4.odb,Step-1,Increment      1: Step Time =    1.000,"PART-1-1",           254,            0.,        20.625,            0.,NA,NA,"",       1.59697,      -1.59681,  -22.5605E-03,   9.51464E-09
C:/temp/dataset/test2/11_4.odb,Step-1,Increment      1: Step Time =    1.000,"PART-1-1",           255,           -3.,       21.5625,            0.,NA,NA,"",       1.63244,      -1.62749,  -127.041E-03,   6.67360E-09
C:/temp/dataset/test2/11_4.odb,Step-1,Increment      1: Step Time =    1.000,"PART-1-1",           256,           -2.,        20.625,            0.,NA,NA,"",       1.59825,      -1.59561,  -91.8393E-03,   8.44132E-09
C:/temp/dataset/test2/11_4.odb,Step-1,Increment      1: Step Time =    1.000,"PART-1-1",           257,           -5.,       21.5625,            0.,NA,NA,"",       1.63809,      -1.62628,  -196.320E-03,   8.00623E-09
C:/temp/dataset/test2/11_4.odb,Step-1,Increment      1: Step Time =    1.000,"PART-1-1",           258,           -4.,        20.625,            0.,NA,NA,"",       1.60253,      -1.59441,  -161.118E-03,   6.79725E-09
C:/temp/dataset/test2/11_4.odb,Step-1,Increment      1: Step Time =    1.000,"PART-1-1",           259,            3.,       19.6875,            0.,NA,NA,"",       1.56828,      -1.56614,   81.9203E-03,   14.7272E-09
C:/temp/dataset/test2/11_4.odb,Step-1,Increment      1: Step Time =    1.000,"PART-1-1",           260,            4.,         18.75,            0.,NA,NA,"",       1.53873,      -1.53426,   117.122E-03,   12.2933E-09
C:/temp/dataset/test2/11_4.odb,Step-1,Increment      1: Step Time =    1.000,"PART-1-1",           261,            5.,       19.6875,            0.,NA,NA,"",       1.57461,      -1.56734,   151.199E-03,   7.56176E-09
C:/temp/dataset/test2/11_4.odb,Step-1,Increment      1: Step Time =    1.000,"PART-1-1",           262,            1.,       19.6875,            0.,NA,NA,"",       1.56499,      -1.56494,   12.6415E-03,   19.6872E-09
C:/temp/dataset/test2/11_4.odb,Step-1,Increment      1: Step Time =    1.000,"PART-1-1",           263,            2.,         18.75,            0.,NA,NA,"",       1.53381,      -1.53306,   47.8435E-03,   23.8866E-09
C:/temp/dataset/test2/11_4.odb,Step-1,Increment      1: Step Time =    1.000,"PART-1-1",           264,           -1.,       19.6875,            0.,NA,NA,"",       1.56476,      -1.56374,  -56.6373E-03,   19.5326E-09
C:/temp/dataset/test2/11_4.odb,Step-1,Increment      1: Step Time =    1.000,"PART-1-1",           265,            0.,         18.75,            0.,NA,NA,"",       1.53201,      -1.53186,  -21.4353E-03,   26.8832E-09
C:/temp/dataset/test2/11_4.odb,Step-1,Increment      1: Step Time =    1.000,"PART-1-1",           266,           -3.,       19.6875,            0.,NA,NA,"",       1.56760,      -1.56254,  -125.916E-03,   14.8588E-09
C:/temp/dataset/test2/11_4.odb,Step-1,Increment      1: Step Time =    1.000,"PART-1-1",           267,           -2.,         18.75,            0.,NA,NA,"",       1.53335,      -1.53066,  -90.7141E-03,   23.5914E-09
C:/temp/dataset/test2/11_4.odb,Step-1,Increment      1: Step Time =    1.000,"PART-1-1",           268,           -5.,       19.6875,            0.,NA,NA,"",       1.57349,      -1.56134,  -195.195E-03,   7.20517E-09
C:/temp/dataset/test2/11_4.odb,Step-1,Increment      1: Step Time =    1.000,"PART-1-1",           269,           -4.,         18.75,            0.,NA,NA,"",       1.53781,      -1.52946,  -159.993E-03,   12.7897E-09
C:/temp/dataset/test2/11_4.odb,Step-1,Increment      1: Step Time =    1.000,"PART-1-1",           270,            3.,       17.8125,            0.,NA,NA,"",       1.50348,      -1.50119,   83.0455E-03,   40.6185E-09
C:/temp/dataset/test2/11_4.odb,Step-1,Increment      1: Step Time =    1.000,"PART-1-1",           271,            4.,        16.875,            0.,NA,NA,"",       1.47406,      -1.46931,   118.248E-03,   36.3167E-09
C:/temp/dataset/test2/11_4.odb,Step-1,Increment      1: Step Time =    1.000,"PART-1-1",           272,            5.,       17.8125,            0.,NA,NA,"",       1.51009,      -1.50239,   152.324E-03,   18.5369E-09
C:/temp/dataset/test2/11_4.odb,Step-1,Increment      1: Step Time =    1.000,"PART-1-1",           273,            1.,       17.8125,            0.,NA,NA,"",       1.50005,      -1.49999,   13.7666E-03,   50.8218E-09
C:/temp/dataset/test2/11_4.odb,Step-1,Increment      1: Step Time =    1.000,"PART-1-1",           274,            2.,        16.875,            0.,NA,NA,"",       1.46893,      -1.46811,   48.9687E-03,   59.6132E-09
C:/temp/dataset/test2/11_4.odb,Step-1,Increment      1: Step Time =    1.000,"PART-1-1",           275,           -1.,       17.8125,            0.,NA,NA,"",       1.49982,      -1.49879,  -55.5121E-03,   50.5889E-09
C:/temp/dataset/test2/11_4.odb,Step-1,Increment      1: Step Time =    1.000,"PART-1-1",           276,            0.,        16.875,            0.,NA,NA,"",       1.46705,      -1.46691,  -20.3102E-03,   66.0261E-09
C:/temp/dataset/test2/11_4.odb,Step-1,Increment      1: Step Time =    1.000,"PART-1-1",           277,           -3.,       17.8125,            0.,NA,NA,"",       1.50278,      -1.49759,  -124.791E-03,   41.0759E-09
C:/temp/dataset/test2/11_4.odb,Step-1,Increment      1: Step Time =    1.000,"PART-1-1",           278,           -2.,        16.875,            0.,NA,NA,"",       1.46845,      -1.46571,  -89.5889E-03,   59.2785E-09
C:/temp/dataset/test2/11_4.odb,Step-1,Increment      1: Step Time =    1.000,"PART-1-1",           279,           -5.,       17.8125,            0.,NA,NA,"",       1.50892,      -1.49639,  -194.070E-03,   22.5245E-09
C:/temp/dataset/test2/11_4.odb,Step-1,Increment      1: Step Time =    1.000,"PART-1-1",           280,           -4.,        16.875,            0.,NA,NA,"",       1.47310,      -1.46451,  -158.868E-03,   38.2760E-09
C:/temp/dataset/test2/11_4.odb,Step-1,Increment      1: Step Time =    1.000,"PART-1-1",           281,            3.,       15.9375,            0.,NA,NA,"",       1.43870,      -1.43624,   84.1707E-03,   94.0137E-09
C:/temp/dataset/test2/11_4.odb,Step-1,Increment      1: Step Time =    1.000,"PART-1-1",           282,            4.,           15.,            0.,NA,NA,"",       1.40943,      -1.40437,   119.373E-03,   92.9988E-09
C:/temp/dataset/test2/11_4.odb,Step-1,Increment      1: Step Time =    1.000,"PART-1-1",           283,            5.,       15.9375,            0.,NA,NA,"",       1.44561,      -1.43744,   153.450E-03,   69.7031E-09
C:/temp/dataset/test2/11_4.odb,Step-1,Increment      1: Step Time =    1.000,"PART-1-1",           284,            1.,       15.9375,            0.,NA,NA,"",       1.43512,      -1.43504,   14.8918E-03,   109.916E-09
C:/temp/dataset/test2/11_4.odb,Step-1,Increment      1: Step Time =    1.000,"PART-1-1",           285,            2.,           15.,            0.,NA,NA,"",       1.40406,      -1.40316,   50.0938E-03,   123.952E-09
C:/temp/dataset/test2/11_4.odb,Step-1,Increment      1: Step Time =    1.000,"PART-1-1",           286,           -1.,       15.9375,            0.,NA,NA,"",       1.43487,      -1.43384,  -54.3870E-03,   109.534E-09
C:/temp/dataset/test2/11_4.odb,Step-1,Increment      1: Step Time =    1.000,"PART-1-1",           287,            0.,           15.,            0.,NA,NA,"",       1.40210,      -1.40196,  -19.1851E-03,   135.449E-09
C:/temp/dataset/test2/11_4.odb,Step-1,Increment      1: Step Time =    1.000,"PART-1-1",           288,           -3.,       15.9375,            0.,NA,NA,"",       1.43797,      -1.43264,  -123.666E-03,   94.5363E-09
C:/temp/dataset/test2/11_4.odb,Step-1,Increment      1: Step Time =    1.000,"PART-1-1",           289,           -2.,           15.,            0.,NA,NA,"",       1.40355,      -1.40076,  -88.4638E-03,   123.445E-09
C:/temp/dataset/test2/11_4.odb,Step-1,Increment      1: Step Time =    1.000,"PART-1-1",           290,           -5.,       15.9375,            0.,NA,NA,"",       1.44438,      -1.43144,  -192.944E-03,   74.6679E-09
C:/temp/dataset/test2/11_4.odb,Step-1,Increment      1: Step Time =    1.000,"PART-1-1",           291,           -4.,           15.,            0.,NA,NA,"",       1.40843,      -1.39956,  -157.742E-03,   95.7644E-09
C:/temp/dataset/test2/11_4.odb,Step-1,Increment      1: Step Time =    1.000,"PART-1-1",           292,            3.,       14.0625,            0.,NA,NA,"",       1.37394,      -1.37129,   85.2959E-03,   179.131E-09
C:/temp/dataset/test2/11_4.odb,Step-1,Increment      1: Step Time =    1.000,"PART-1-1",           293,            4.,        13.125,            0.,NA,NA,"",       1.34483,      -1.33942,   120.498E-03,   196.353E-09
C:/temp/dataset/test2/11_4.odb,Step-1,Increment      1: Step Time =    1.000,"PART-1-1",           294,            5.,       14.0625,            0.,NA,NA,"",       1.38117,      -1.37249,   154.575E-03,   186.689E-09
C:/temp/dataset/test2/11_4.odb,Step-1,Increment      1: Step Time =    1.000,"PART-1-1",           295,            1.,       14.0625,            0.,NA,NA,"",       1.37018,      -1.37009,   16.0168E-03,   196.887E-09
C:/temp/dataset/test2/11_4.odb,Step-1,Increment      1: Step Time =    1.000,"PART-1-1",           296,            2.,        13.125,            0.,NA,NA,"",       1.33920,      -1.33822,   51.2189E-03,   209.491E-09
C:/temp/dataset/test2/11_4.odb,Step-1,Increment      1: Step Time =    1.000,"PART-1-1",           297,           -1.,       14.0625,            0.,NA,NA,"",       1.36993,      -1.36889,  -53.2620E-03,   196.231E-09
C:/temp/dataset/test2/11_4.odb,Step-1,Increment      1: Step Time =    1.000,"PART-1-1",           298,            0.,        13.125,            0.,NA,NA,"",       1.33714,      -1.33702,  -18.0602E-03,   227.539E-09
C:/temp/dataset/test2/11_4.odb,Step-1,Increment      1: Step Time =    1.000,"PART-1-1",           299,           -3.,       14.0625,            0.,NA,NA,"",       1.37317,      -1.36769,  -122.540E-03,   179.480E-09
C:/temp/dataset/test2/11_4.odb,Step-1,Increment      1: Step Time =    1.000,"PART-1-1",           300,           -2.,        13.125,            0.,NA,NA,"",       1.33867,      -1.33581,  -87.3387E-03,   208.568E-09
C:/temp/dataset/test2/11_4.odb,Step-1,Increment      1: Step Time =    1.000,"PART-1-1",           301,           -5.,       14.0625,            0.,NA,NA,"",       1.37989,      -1.36649,  -191.819E-03,   192.226E-09
C:/temp/dataset/test2/11_4.odb,Step-1,Increment      1: Step Time =    1.000,"PART-1-1",           302,           -4.,        13.125,            0.,NA,NA,"",       1.34377,      -1.33461,  -156.617E-03,   199.707E-09
C:/temp/dataset/test2/11_4.odb,Step-1,Increment      1: Step Time =    1.000,"PART-1-1",           303,            3.,       12.1875,            0.,NA,NA,"",       1.30920,      -1.30634,   86.4212E-03,   262.526E-09
C:/temp/dataset/test2/11_4.odb,Step-1,Increment      1: Step Time =    1.000,"PART-1-1",           304,            4.,         11.25,            0.,NA,NA,"",       1.28026,      -1.27447,   121.624E-03,   338.651E-09
C:/temp/dataset/test2/11_4.odb,Step-1,Increment      1: Step Time =    1.000,"PART-1-1",           305,            5.,       12.1875,            0.,NA,NA,"",       1.31678,      -1.30754,   155.701E-03,   403.587E-09
C:/temp/dataset/test2/11_4.odb,Step-1,Increment      1: Step Time =    1.000,"PART-1-1",           306,            1.,       12.1875,            0.,NA,NA,"",       1.30525,      -1.30514,   17.1417E-03,   270.367E-09
C:/temp/dataset/test2/11_4.odb,Step-1,Increment      1: Step Time =    1.000,"PART-1-1",           307,            2.,         11.25,            0.,NA,NA,"",       1.27434,      -1.27327,   52.3439E-03,   252.121E-09
C:/temp/dataset/test2/11_4.odb,Step-1,Increment      1: Step Time =    1.000,"PART-1-1",           308,           -1.,       12.1875,            0.,NA,NA,"",       1.30498,      -1.30394,  -52.1370E-03,   269.061E-09
C:/temp/dataset/test2/11_4.odb,Step-1,Increment      1: Step Time =    1.000,"PART-1-1",           309,            0.,         11.25,            0.,NA,NA,"",       1.27218,      -1.27207,  -16.9354E-03,   285.839E-09
C:/temp/dataset/test2/11_4.odb,Step-1,Increment      1: Step Time =    1.000,"PART-1-1",           310,           -3.,       12.1875,            0.,NA,NA,"",       1.30839,      -1.30274,  -121.415E-03,   261.996E-09
C:/temp/dataset/test2/11_4.odb,Step-1,Increment      1: Step Time =    1.000,"PART-1-1",           311,           -2.,         11.25,            0.,NA,NA,"",       1.27379,      -1.27087,  -86.2137E-03,   250.167E-09
C:/temp/dataset/test2/11_4.odb,Step-1,Increment      1: Step Time =    1.000,"PART-1-1",           312,           -5.,       12.1875,            0.,NA,NA,"",       1.31544,      -1.30154,  -190.693E-03,   409.089E-09
C:/temp/dataset/test2/11_4.odb,Step-1,Increment      1: Step Time =    1.000,"PART-1-1",           313,           -4.,         11.25,            0.,NA,NA,"",       1.27915,      -1.26967,  -155.491E-03,   342.141E-09
C:/temp/dataset/test2/11_4.odb,Step-1,Increment      1: Step Time =    1.000,"PART-1-1",           314,            3.,       10.3125,            0.,NA,NA,"",       1.24448,      -1.24139,   87.5465E-03,   201.899E-09
C:/temp/dataset/test2/11_4.odb,Step-1,Increment      1: Step Time =    1.000,"PART-1-1",           315,            4.,         9.375,            0.,NA,NA,"",       1.21573,      -1.20952,   122.750E-03,   437.620E-09
C:/temp/dataset/test2/11_4.odb,Step-1,Increment      1: Step Time =    1.000,"PART-1-1",           316,            5.,       10.3125,            0.,NA,NA,"",       1.25245,      -1.24259,   156.827E-03,   706.758E-09
C:/temp/dataset/test2/11_4.odb,Step-1,Increment      1: Step Time =    1.000,"PART-1-1",           317,            1.,       10.3125,            0.,NA,NA,"",       1.24033,      -1.24019,   18.2666E-03,   292.752E-09
C:/temp/dataset/test2/11_4.odb,Step-1,Increment      1: Step Time =    1.000,"PART-1-1",           318,            2.,         9.375,            0.,NA,NA,"",       1.20950,      -1.20832,   53.4689E-03,   278.847E-09
C:/temp/dataset/test2/11_4.odb,Step-1,Increment      1: Step Time =    1.000,"PART-1-1",           319,           -1.,       10.3125,            0.,NA,NA,"",       1.24004,      -1.23899,  -51.0122E-03,   290.810E-09
C:/temp/dataset/test2/11_4.odb,Step-1,Increment      1: Step Time =    1.000,"PART-1-1",           320,            0.,         9.375,            0.,NA,NA,"",       1.20722,      -1.20712,  -15.8105E-03,   433.477E-09
C:/temp/dataset/test2/11_4.odb,Step-1,Increment      1: Step Time =    1.000,"PART-1-1",           321,           -3.,       10.3125,            0.,NA,NA,"",       1.24362,      -1.23779,  -120.290E-03,   199.334E-09
C:/temp/dataset/test2/11_4.odb,Step-1,Increment      1: Step Time =    1.000,"PART-1-1",           322,           -2.,         9.375,            0.,NA,NA,"",       1.20892,      -1.20592,  -85.0887E-03,   278.915E-09
C:/temp/dataset/test2/11_4.odb,Step-1,Increment      1: Step Time =    1.000,"PART-1-1",           323,           -5.,       10.3125,            0.,NA,NA,"",       1.25104,      -1.23659,  -189.567E-03,   709.762E-09
C:/temp/dataset/test2/11_4.odb,Step-1,Increment      1: Step Time =    1.000,"PART-1-1",           324,           -4.,         9.375,            0.,NA,NA,"",       1.21457,      -1.20472,  -154.366E-03,   440.589E-09
C:/temp/dataset/test2/11_4.odb,Step-1,Increment      1: Step Time =    1.000,"PART-1-1",           325,            3.,        8.4375,            0.,NA,NA,"",       1.17978,      -1.17644,   88.6718E-03,   612.871E-09
C:/temp/dataset/test2/11_4.odb,Step-1,Increment      1: Step Time =    1.000,"PART-1-1",           326,            4.,           7.5,            0.,NA,NA,"",       1.15125,      -1.14456,   123.875E-03,   588.573E-09
C:/temp/dataset/test2/11_4.odb,Step-1,Increment      1: Step Time =    1.000,"PART-1-1",           327,            5.,        8.4375,            0.,NA,NA,"",       1.18819,      -1.17764,   157.954E-03,   871.863E-09
C:/temp/dataset/test2/11_4.odb,Step-1,Increment      1: Step Time =    1.000,"PART-1-1",           328,            1.,        8.4375,            0.,NA,NA,"",       1.17540,      -1.17524,   19.3918E-03,   1.18127E-06
C:/temp/dataset/test2/11_4.odb,Step-1,Increment      1: Step Time =    1.000,"PART-1-1",           329,            2.,           7.5,            0.,NA,NA,"",       1.14467,      -1.14337,   54.5945E-03,   1.55279E-06
C:/temp/dataset/test2/11_4.odb,Step-1,Increment      1: Step Time =    1.000,"PART-1-1",           330,           -1.,        8.4375,            0.,NA,NA,"",       1.17510,      -1.17404,  -49.8870E-03,   1.18176E-06
C:/temp/dataset/test2/11_4.odb,Step-1,Increment      1: Step Time =    1.000,"PART-1-1",           331,            0.,           7.5,            0.,NA,NA,"",       1.14226,      -1.14217,  -14.6844E-03,   1.88914E-06
C:/temp/dataset/test2/11_4.odb,Step-1,Increment      1: Step Time =    1.000,"PART-1-1",           332,           -3.,        8.4375,            0.,NA,NA,"",       1.17888,      -1.17285,  -119.165E-03,   619.144E-09
C:/temp/dataset/test2/11_4.odb,Step-1,Increment      1: Step Time =    1.000,"PART-1-1",           333,           -2.,           7.5,            0.,NA,NA,"",       1.14406,      -1.14097,  -83.9633E-03,   1.55926E-06
C:/temp/dataset/test2/11_4.odb,Step-1,Increment      1: Step Time =    1.000,"PART-1-1",           334,           -5.,        8.4375,            0.,NA,NA,"",       1.18670,      -1.17165,  -188.440E-03,   866.216E-09
C:/temp/dataset/test2/11_4.odb,Step-1,Increment      1: Step Time =    1.000,"PART-1-1",           335,           -4.,           7.5,            0.,NA,NA,"",       1.15003,      -1.13977,  -153.240E-03,   600.915E-09
C:/temp/dataset/test2/11_4.odb,Step-1,Increment      1: Step Time =    1.000,"PART-1-1",           336,            3.,        6.5625,            0.,NA,NA,"",       1.11511,      -1.11149,   89.7972E-03,   3.17038E-06
C:/temp/dataset/test2/11_4.odb,Step-1,Increment      1: Step Time =    1.000,"PART-1-1",           337,            4.,         5.625,            0.,NA,NA,"",       1.08682,      -1.07961,   125.000E-03,   2.60770E-06
C:/temp/dataset/test2/11_4.odb,Step-1,Increment      1: Step Time =    1.000,"PART-1-1",           338,            5.,        6.5625,            0.,NA,NA,"",       1.12400,      -1.11269,   159.081E-03,   183.304E-09
C:/temp/dataset/test2/11_4.odb,Step-1,Increment      1: Step Time =    1.000,"PART-1-1",           339,            1.,        6.5625,            0.,NA,NA,"",       1.11048,      -1.11029,   20.5190E-03,   4.41525E-06
C:/temp/dataset/test2/11_4.odb,Step-1,Increment      1: Step Time =    1.000,"PART-1-1",           340,            2.,         5.625,            0.,NA,NA,"",       1.07985,      -1.07841,   55.7219E-03,   5.51693E-06
C:/temp/dataset/test2/11_4.odb,Step-1,Increment      1: Step Time =    1.000,"PART-1-1",           341,           -1.,        6.5625,            0.,NA,NA,"",       1.11017,      -1.10910,  -48.7600E-03,   4.40378E-06
C:/temp/dataset/test2/11_4.odb,Step-1,Increment      1: Step Time =    1.000,"PART-1-1",           342,            0.,         5.625,            0.,NA,NA,"",       1.07731,      -1.07722,  -13.5544E-03,   6.27638E-06
C:/temp/dataset/test2/11_4.odb,Step-1,Increment      1: Step Time =    1.000,"PART-1-1",           343,           -3.,        6.5625,            0.,NA,NA,"",       1.11417,      -1.10790,  -118.040E-03,   3.16265E-06
C:/temp/dataset/test2/11_4.odb,Step-1,Increment      1: Step Time =    1.000,"PART-1-1",           344,           -2.,         5.625,            0.,NA,NA,"",       1.07921,      -1.07603,  -82.8363E-03,   5.50989E-06
C:/temp/dataset/test2/11_4.odb,Step-1,Increment      1: Step Time =    1.000,"PART-1-1",           345,           -5.,        6.5625,            0.,NA,NA,"",       1.12244,      -1.10670,  -187.314E-03,   181.628E-09
C:/temp/dataset/test2/11_4.odb,Step-1,Increment      1: Step Time =    1.000,"PART-1-1",           346,           -4.,         5.625,            0.,NA,NA,"",       1.08554,      -1.07483,  -152.116E-03,   2.61243E-06
C:/temp/dataset/test2/11_4.odb,Step-1,Increment      1: Step Time =    1.000,"PART-1-1",           347,            3.,        4.6875,            0.,NA,NA,"",       1.05047,      -1.04653,   90.9227E-03,   9.91556E-06
C:/temp/dataset/test2/11_4.odb,Step-1,Increment      1: Step Time =    1.000,"PART-1-1",           348,            4.,          3.75,            0.,NA,NA,"",       1.02245,      -1.01464,   126.121E-03,   8.96407E-06
C:/temp/dataset/test2/11_4.odb,Step-1,Increment      1: Step Time =    1.000,"PART-1-1",           349,            5.,        4.6875,            0.,NA,NA,"",       1.05990,      -1.04773,   160.206E-03,   4.08973E-06
C:/temp/dataset/test2/11_4.odb,Step-1,Increment      1: Step Time =    1.000,"PART-1-1",           350,            1.,        4.6875,            0.,NA,NA,"",       1.04556,      -1.04534,   21.6519E-03,   12.4015E-06
C:/temp/dataset/test2/11_4.odb,Step-1,Increment      1: Step Time =    1.000,"PART-1-1",           351,            2.,          3.75,            0.,NA,NA,"",       1.01504,      -1.01345,   56.8547E-03,   14.9234E-06
C:/temp/dataset/test2/11_4.odb,Step-1,Increment      1: Step Time =    1.000,"PART-1-1",           352,           -1.,        4.6875,            0.,NA,NA,"",       1.04524,      -1.04416,  -47.6275E-03,   12.3077E-06
C:/temp/dataset/test2/11_4.odb,Step-1,Increment      1: Step Time =    1.000,"PART-1-1",           353,            0.,          3.75,            0.,NA,NA,"",       1.01235,      -1.01227,  -12.4140E-03,   16.4573E-06
C:/temp/dataset/test2/11_4.odb,Step-1,Increment      1: Step Time =    1.000,"PART-1-1",           354,           -3.,        4.6875,            0.,NA,NA,"",       1.04950,      -1.04297,  -116.915E-03,   9.77469E-06
C:/temp/dataset/test2/11_4.odb,Step-1,Increment      1: Step Time =    1.000,"PART-1-1",           355,           -2.,          3.75,            0.,NA,NA,"",       1.01439,      -1.01110,  -81.7048E-03,   14.7275E-06
C:/temp/dataset/test2/11_4.odb,Step-1,Increment      1: Step Time =    1.000,"PART-1-1",           356,           -5.,        4.6875,            0.,NA,NA,"",       1.05827,      -1.04176,  -186.190E-03,   4.08212E-06
C:/temp/dataset/test2/11_4.odb,Step-1,Increment      1: Step Time =    1.000,"PART-1-1",           357,           -4.,          3.75,            0.,NA,NA,"",       1.02113,      -1.00990,  -150.997E-03,   8.87282E-06
C:/temp/dataset/test2/11_4.odb,Step-1,Increment      1: Step Time =    1.000,"PART-1-1",           358,            3.,        2.8125,            0.,NA,NA,"",   985.858E-03,  -981.551E-03,   92.0482E-03,   24.8849E-06
C:/temp/dataset/test2/11_4.odb,Step-1,Increment      1: Step Time =    1.000,"PART-1-1",           359,            4.,         1.875,            0.,NA,NA,"",   958.143E-03,  -949.658E-03,   127.228E-03,   24.3316E-06
C:/temp/dataset/test2/11_4.odb,Step-1,Increment      1: Step Time =    1.000,"PART-1-1",           360,            5.,        2.8125,            0.,NA,NA,"",   995.909E-03,  -982.756E-03,   161.320E-03,   16.6976E-06
C:/temp/dataset/test2/11_4.odb,Step-1,Increment      1: Step Time =    1.000,"PART-1-1",           361,            1.,        2.8125,            0.,NA,NA,"",   980.643E-03,  -980.378E-03,   22.7990E-03,   28.8932E-06
C:/temp/dataset/test2/11_4.odb,Step-1,Increment      1: Step Time =    1.000,"PART-1-1",           362,            2.,         1.875,            0.,NA,NA,"",   950.244E-03,  -948.472E-03,   57.9995E-03,   33.5164E-06
C:/temp/dataset/test2/11_4.odb,Step-1,Increment      1: Step Time =    1.000,"PART-1-1",           363,           -1.,        2.8125,            0.,NA,NA,"",   980.321E-03,  -979.219E-03,  -46.4818E-03,   28.3358E-06
C:/temp/dataset/test2/11_4.odb,Step-1,Increment      1: Step Time =    1.000,"PART-1-1",           364,            0.,         1.875,            0.,NA,NA,"",   947.393E-03,  -947.326E-03,  -11.2507E-03,   36.1256E-06
C:/temp/dataset/test2/11_4.odb,Step-1,Increment      1: Step Time =    1.000,"PART-1-1",           365,           -3.,        2.8125,            0.,NA,NA,"",   984.872E-03,  -978.041E-03,  -115.792E-03,   23.7878E-06
C:/temp/dataset/test2/11_4.odb,Step-1,Increment      1: Step Time =    1.000,"PART-1-1",           366,           -2.,         1.875,            0.,NA,NA,"",   949.598E-03,  -946.174E-03,  -80.5633E-03,   32.4406E-06
C:/temp/dataset/test2/11_4.odb,Step-1,Increment      1: Step Time =    1.000,"PART-1-1",           367,           -5.,        2.8125,            0.,NA,NA,"",   994.214E-03,  -976.836E-03,  -185.077E-03,   16.3064E-06
C:/temp/dataset/test2/11_4.odb,Step-1,Increment      1: Step Time =    1.000,"PART-1-1",           368,           -4.,         1.875,            0.,NA,NA,"",   956.796E-03,  -944.982E-03,  -149.891E-03,   23.3937E-06
C:/temp/dataset/test2/11_4.odb,Step-1,Increment      1: Step Time =    1.000,"PART-1-1",           369,            3.,     937.5E-03,            0.,NA,NA,"",   921.287E-03,  -916.563E-03,   93.1732E-03,   52.0841E-06
C:/temp/dataset/test2/11_4.odb,Step-1,Increment      1: Step Time =    1.000,"PART-1-1",           370,            4.,            0.,            0.,NA,NA,"",   893.926E-03,  -884.669E-03,   128.308E-03,   55.6219E-06
C:/temp/dataset/test2/11_4.odb,Step-1,Increment      1: Step Time =    1.000,"PART-1-1",           371,            5.,     937.5E-03,            0.,NA,NA,"",   932.036E-03,  -917.778E-03,   162.402E-03,   48.9118E-06
C:/temp/dataset/test2/11_4.odb,Step-1,Increment      1: Step Time =    1.000,"PART-1-1",           372,            1.,     937.5E-03,            0.,NA,NA,"",   915.729E-03,  -915.415E-03,   23.9748E-03,   56.7232E-06
C:/temp/dataset/test2/11_4.odb,Step-1,Increment      1: Step Time =    1.000,"PART-1-1",           373,            2.,            0.,            0.,NA,NA,"",   885.473E-03,  -883.494E-03,   59.1686E-03,   63.9250E-06
C:/temp/dataset/test2/11_4.odb,Step-1,Increment      1: Step Time =    1.000,"PART-1-1",           374,           -1.,     937.5E-03,            0.,NA,NA,"",   915.413E-03,  -914.291E-03,  -45.3102E-03,   54.3992E-06
C:/temp/dataset/test2/11_4.odb,Step-1,Increment      1: Step Time =    1.000,"PART-1-1",           375,            0.,            0.,            0.,NA,NA,"",   882.442E-03,  -882.385E-03,  -10.0465E-03,   66.2841E-06
C:/temp/dataset/test2/11_4.odb,Step-1,Increment      1: Step Time =    1.000,"PART-1-1",           376,           -3.,     937.5E-03,            0.,NA,NA,"",   920.301E-03,  -913.129E-03,  -114.671E-03,   47.6433E-06
C:/temp/dataset/test2/11_4.odb,Step-1,Increment      1: Step Time =    1.000,"PART-1-1",           377,           -2.,            0.,            0.,NA,NA,"",   884.830E-03,  -881.260E-03,  -79.4046E-03,   58.7405E-06
C:/temp/dataset/test2/11_4.odb,Step-1,Increment      1: Step Time =    1.000,"PART-1-1",           378,           -5.,     937.5E-03,            0.,NA,NA,"",   930.287E-03,  -911.910E-03,  -183.995E-03,   45.0565E-06
C:/temp/dataset/test2/11_4.odb,Step-1,Increment      1: Step Time =    1.000,"PART-1-1",           379,           -4.,            0.,            0.,NA,NA,"",   892.558E-03,  -880.065E-03,  -148.812E-03,   50.9718E-06
C:/temp/dataset/test2/11_4.odb,Step-1,Increment      1: Step Time =    1.000,"PART-1-1",           380,            3.,    -937.5E-03,            0.,NA,NA,"",   856.785E-03,  -851.580E-03,   94.3007E-03,   93.0175E-06
C:/temp/dataset/test2/11_4.odb,Step-1,Increment      1: Step Time =    1.000,"PART-1-1",           381,            4.,        -1.875,            0.,NA,NA,"",   829.856E-03,  -819.717E-03,   129.327E-03,   108.527E-06
C:/temp/dataset/test2/11_4.odb,Step-1,Increment      1: Step Time =    1.000,"PART-1-1",           382,            5.,    -937.5E-03,            0.,NA,NA,"",   868.333E-03,  -852.818E-03,   163.409E-03,   115.747E-06
C:/temp/dataset/test2/11_4.odb,Step-1,Increment      1: Step Time =    1.000,"PART-1-1",           383,            1.,    -937.5E-03,            0.,NA,NA,"",   850.836E-03,  -850.463E-03,   25.1989E-03,   90.1268E-06
C:/temp/dataset/test2/11_4.odb,Step-1,Increment      1: Step Time =    1.000,"PART-1-1",           384,            2.,        -1.875,            0.,NA,NA,"",   820.774E-03,  -818.550E-03,   60.3785E-03,   94.6141E-06
C:/temp/dataset/test2/11_4.odb,Step-1,Increment      1: Step Time =    1.000,"PART-1-1",           385,           -1.,    -937.5E-03,            0.,NA,NA,"",   850.510E-03,  -849.366E-03,  -44.0997E-03,   82.8465E-06
C:/temp/dataset/test2/11_4.odb,Step-1,Increment      1: Step Time =    1.000,"PART-1-1",           386,            0.,        -1.875,            0.,NA,NA,"",   817.502E-03,  -817.454E-03,  -8.78997E-03,   95.0349E-06
C:/temp/dataset/test2/11_4.odb,Step-1,Increment      1: Step Time =    1.000,"PART-1-1",           387,           -3.,    -937.5E-03,            0.,NA,NA,"",   855.776E-03,  -848.209E-03,  -113.556E-03,   75.2302E-06
C:/temp/dataset/test2/11_4.odb,Step-1,Increment      1: Step Time =    1.000,"PART-1-1",           388,           -2.,        -1.875,            0.,NA,NA,"",   820.060E-03,  -816.320E-03,  -78.2265E-03,   80.0159E-06
C:/temp/dataset/test2/11_4.odb,Step-1,Increment      1: Step Time =    1.000,"PART-1-1",           389,           -5.,    -937.5E-03,            0.,NA,NA,"",   866.500E-03,  -846.959E-03,  -182.980E-03,   99.6528E-06
C:/temp/dataset/test2/11_4.odb,Step-1,Increment      1: Step Time =    1.000,"PART-1-1",           390,           -4.,        -1.875,            0.,NA,NA,"",   828.389E-03,  -815.100E-03,  -147.782E-03,   91.6424E-06
C:/temp/dataset/test2/11_4.odb,Step-1,Increment      1: Step Time =    1.000,"PART-1-1",           391,            3.,       -2.8125,            0.,NA,NA,"",   792.461E-03,  -786.694E-03,   95.4322E-03,   112.675E-06
C:/temp/dataset/test2/11_4.odb,Step-1,Increment      1: Step Time =    1.000,"PART-1-1",           392,            4.,         -3.75,            0.,NA,NA,"",   766.131E-03,  -754.974E-03,   130.274E-03,   172.158E-06
C:/temp/dataset/test2/11_4.odb,Step-1,Increment      1: Step Time =    1.000,"PART-1-1",           393,            5.,       -2.8125,            0.,NA,NA,"",   804.898E-03,  -787.964E-03,   164.235E-03,   250.505E-06
C:/temp/dataset/test2/11_4.odb,Step-1,Increment      1: Step Time =    1.000,"PART-1-1",           394,            1.,       -2.8125,            0.,NA,NA,"",   786.013E-03,  -785.567E-03,   26.4749E-03,   105.989E-06
C:/temp/dataset/test2/11_4.odb,Step-1,Increment      1: Step Time =    1.000,"PART-1-1",           395,            2.,         -3.75,            0.,NA,NA,"",   756.284E-03,  -753.769E-03,   61.6336E-03,   96.8594E-06
C:/temp/dataset/test2/11_4.odb,Step-1,Increment      1: Step Time =    1.000,"PART-1-1",           396,           -1.,       -2.8125,            0.,NA,NA,"",   785.579E-03,  -784.409E-03,  -42.8589E-03,   85.7000E-06
C:/temp/dataset/test2/11_4.odb,Step-1,Increment      1: Step Time =    1.000,"PART-1-1",           397,            0.,         -3.75,            0.,NA,NA,"",   752.569E-03,  -752.532E-03,  -7.52454E-03,   110.061E-06
C:/temp/dataset/test2/11_4.odb,Step-1,Increment      1: Step Time =    1.000,"PART-1-1",           398,           -3.,       -2.8125,            0.,NA,NA,"",   791.230E-03,  -783.198E-03,  -112.455E-03,   76.2436E-06
C:/temp/dataset/test2/11_4.odb,Step-1,Increment      1: Step Time =    1.000,"PART-1-1",           399,           -2.,         -3.75,            0.,NA,NA,"",   755.181E-03,  -751.240E-03,  -77.0493E-03,   66.0987E-06
C:/temp/dataset/test2/11_4.odb,Step-1,Increment      1: Step Time =    1.000,"PART-1-1",           400,           -5.,       -2.8125,            0.,NA,NA,"",   802.816E-03,  -781.895E-03,  -182.083E-03,   177.483E-06
C:/temp/dataset/test2/11_4.odb,Step-1,Increment      1: Step Time =    1.000,"PART-1-1",           401,           -4.,         -3.75,            0.,NA,NA,"",   764.184E-03,  -749.950E-03,  -146.809E-03,   128.145E-06
C:/temp/dataset/test2/11_4.odb,Step-1,Increment      1: Step Time =    1.000,"PART-1-1",           402,            3.,       -4.6875,            0.,NA,NA,"",   728.612E-03,  -722.178E-03,   96.6121E-03,   140.479E-06
C:/temp/dataset/test2/11_4.odb,Step-1,Increment      1: Step Time =    1.000,"PART-1-1",           403,            4.,        -5.625,            0.,NA,NA,"",   703.321E-03,  -690.996E-03,   131.091E-03,   303.841E-06
C:/temp/dataset/test2/11_4.odb,Step-1,Increment      1: Step Time =    1.000,"PART-1-1",           404,            5.,       -4.6875,            0.,NA,NA,"",   742.066E-03,  -723.544E-03,   164.761E-03,   411.386E-06
C:/temp/dataset/test2/11_4.odb,Step-1,Increment      1: Step Time =    1.000,"PART-1-1",           405,            1.,       -4.6875,            0.,NA,NA,"",   721.335E-03,  -720.803E-03,   27.7128E-03,   247.644E-06
C:/temp/dataset/test2/11_4.odb,Step-1,Increment      1: Step Time =    1.000,"PART-1-1",           406,            2.,        -5.625,            0.,NA,NA,"",   692.286E-03,  -689.432E-03,   62.7880E-03,   437.412E-06
C:/temp/dataset/test2/11_4.odb,Step-1,Increment      1: Step Time =    1.000,"PART-1-1",           407,           -1.,       -4.6875,            0.,NA,NA,"",   720.492E-03,  -719.286E-03,  -41.6721E-03,   183.190E-06
C:/temp/dataset/test2/11_4.odb,Step-1,Increment      1: Step Time =    1.000,"PART-1-1",           408,            0.,        -5.625,            0.,NA,NA,"",   687.509E-03,  -687.479E-03,  -6.45403E-03,   378.931E-06
C:/temp/dataset/test2/11_4.odb,Step-1,Increment      1: Step Time =    1.000,"PART-1-1",           409,           -3.,       -4.6875,            0.,NA,NA,"",   726.476E-03,  -717.890E-03,  -111.367E-03,   61.7770E-06
C:/temp/dataset/test2/11_4.odb,Step-1,Increment      1: Step Time =    1.000,"PART-1-1",           410,           -2.,        -5.625,            0.,NA,NA,"",   689.927E-03,  -685.736E-03,  -75.9276E-03,   241.271E-06
C:/temp/dataset/test2/11_4.odb,Step-1,Increment      1: Step Time =    1.000,"PART-1-1",           411,           -5.,       -4.6875,            0.,NA,NA,"",   739.112E-03,  -716.524E-03,  -181.328E-03,   235.712E-06
C:/temp/dataset/test2/11_4.odb,Step-1,Increment      1: Step Time =    1.000,"PART-1-1",           412,           -4.,        -5.625,            0.,NA,NA,"",   699.701E-03,  -684.332E-03,  -145.845E-03,   138.666E-06
C:/temp/dataset/test2/11_4.odb,Step-1,Increment      1: Step Time =    1.000,"PART-1-1",           413,            3.,       -6.5625,            0.,NA,NA,"",   666.137E-03,  -658.947E-03,   97.6100E-03,   1.18005E-03
C:/temp/dataset/test2/11_4.odb,Step-1,Increment      1: Step Time =    1.000,"PART-1-1",           414,            4.,          -7.5,            0.,NA,NA,"",   643.574E-03,  -629.852E-03,   132.190E-03,   2.31608E-03
C:/temp/dataset/test2/11_4.odb,Step-1,Increment      1: Step Time =    1.000,"PART-1-1",           415,            5.,       -6.5625,            0.,NA,NA,"",   680.668E-03,  -660.464E-03,   164.606E-03,   536.727E-06
C:/temp/dataset/test2/11_4.odb,Step-1,Increment      1: Step Time =    1.000,"PART-1-1",           416,            1.,       -6.5625,            0.,NA,NA,"",   656.668E-03,  -656.051E-03,   28.4639E-03,   936.170E-06
C:/temp/dataset/test2/11_4.odb,Step-1,Increment      1: Step Time =    1.000,"PART-1-1",           417,            2.,          -7.5,            0.,NA,NA,"",   628.515E-03,  -625.354E-03,   62.9564E-03,   1.71932E-03
C:/temp/dataset/test2/11_4.odb,Step-1,Increment      1: Step Time =    1.000,"PART-1-1",           418,           -1.,       -6.5625,            0.,NA,NA,"",   654.875E-03,  -653.608E-03,  -40.7180E-03,   669.613E-06
C:/temp/dataset/test2/11_4.odb,Step-1,Increment      1: Step Time =    1.000,"PART-1-1",           419,            0.,          -7.5,            0.,NA,NA,"",   621.711E-03,  -621.682E-03,  -5.96424E-03,   1.20562E-03
C:/temp/dataset/test2/11_4.odb,Step-1,Increment      1: Step Time =    1.000,"PART-1-1",           420,           -3.,       -6.5625,            0.,NA,NA,"",   661.154E-03,  -651.898E-03,  -110.245E-03,   381.146E-06
C:/temp/dataset/test2/11_4.odb,Step-1,Increment      1: Step Time =    1.000,"PART-1-1",           421,           -2.,          -7.5,            0.,NA,NA,"",   623.808E-03,  -619.298E-03,  -74.8797E-03,   800.866E-06
C:/temp/dataset/test2/11_4.odb,Step-1,Increment      1: Step Time =    1.000,"PART-1-1",           422,           -5.,       -6.5625,            0.,NA,NA,"",   675.145E-03,  -650.538E-03,  -180.612E-03,   159.803E-06
C:/temp/dataset/test2/11_4.odb,Step-1,Increment      1: Step Time =    1.000,"PART-1-1",           423,           -4.,          -7.5,            0.,NA,NA,"",   634.566E-03,  -617.849E-03,  -144.697E-03,   305.883E-06
C:/temp/dataset/test2/11_4.odb,Step-1,Increment      1: Step Time =    1.000,"PART-1-1",           424,            3.,       -8.4375,            0.,NA,NA,"",   603.379E-03,  -595.557E-03,   96.8398E-03,   3.18620E-03
C:/temp/dataset/test2/11_4.odb,Step-1,Increment      1: Step Time =    1.000,"PART-1-1",           425,            4.,        -9.375,            0.,NA,NA,"",   580.984E-03,  -566.156E-03,   130.420E-03,   4.03671E-03
C:/temp/dataset/test2/11_4.odb,Step-1,Increment      1: Step Time =    1.000,"PART-1-1",           426,            5.,       -8.4375,            0.,NA,NA,"",   625.068E-03,  -602.858E-03,   165.144E-03,   3.29847E-03
C:/temp/dataset/test2/11_4.odb,Step-1,Increment      1: Step Time =    1.000,"PART-1-1",           427,            1.,       -8.4375,            0.,NA,NA,"",   590.786E-03,  -590.118E-03,   28.1009E-03,   2.14871E-03
C:/temp/dataset/test2/11_4.odb,Step-1,Increment      1: Step Time =    1.000,"PART-1-1",           428,            2.,        -9.375,            0.,NA,NA,"",   562.221E-03,  -558.859E-03,   61.3963E-03,   3.41812E-03
C:/temp/dataset/test2/11_4.odb,Step-1,Increment      1: Step Time =    1.000,"PART-1-1",           429,           -1.,       -8.4375,            0.,NA,NA,"",   588.010E-03,  -586.642E-03,  -40.0811E-03,   1.54451E-03
C:/temp/dataset/test2/11_4.odb,Step-1,Increment      1: Step Time =    1.000,"PART-1-1",           430,            0.,        -9.375,            0.,NA,NA,"",   554.044E-03,  -554.011E-03,  -6.10691E-03,   2.41378E-03
C:/temp/dataset/test2/11_4.odb,Step-1,Increment      1: Step Time =    1.000,"PART-1-1",           431,           -3.,       -8.4375,            0.,NA,NA,"",   594.815E-03,  -584.761E-03,  -108.898E-03,   999.219E-06
C:/temp/dataset/test2/11_4.odb,Step-1,Increment      1: Step Time =    1.000,"PART-1-1",           432,           -2.,        -9.375,            0.,NA,NA,"",   556.309E-03,  -551.406E-03,  -73.6964E-03,   1.66982E-03
C:/temp/dataset/test2/11_4.odb,Step-1,Increment      1: Step Time =    1.000,"PART-1-1",           433,           -5.,       -8.4375,            0.,NA,NA,"",   610.630E-03,  -583.633E-03,  -179.561E-03,   233.302E-06
C:/temp/dataset/test2/11_4.odb,Step-1,Increment      1: Step Time =    1.000,"PART-1-1",           434,           -4.,        -9.375,            0.,NA,NA,"",   568.487E-03,  -550.219E-03,  -142.956E-03,   844.932E-06
C:/temp/dataset/test2/11_4.odb,Step-1,Increment      1: Step Time =    1.000,"PART-1-1",           435,            3.,      -10.3125,            0.,NA,NA,"",   535.314E-03,  -526.952E-03,   94.2482E-03,   4.45425E-03
C:/temp/dataset/test2/11_4.odb,Step-1,Increment      1: Step Time =    1.000,"PART-1-1",           436,            4.,        -11.25,            0.,NA,NA,"",   509.626E-03,  -493.332E-03,   127.839E-03,   3.84217E-03
C:/temp/dataset/test2/11_4.odb,Step-1,Increment      1: Step Time =    1.000,"PART-1-1",           437,            5.,      -10.3125,            0.,NA,NA,"",   560.359E-03,  -535.005E-03,   166.649E-03,   3.47151E-03
C:/temp/dataset/test2/11_4.odb,Step-1,Increment      1: Step Time =    1.000,"PART-1-1",           438,            1.,      -10.3125,            0.,NA,NA,"",   521.959E-03,  -521.262E-03,   26.9692E-03,   3.35419E-03
C:/temp/dataset/test2/11_4.odb,Step-1,Increment      1: Step Time =    1.000,"PART-1-1",           439,            2.,        -11.25,            0.,NA,NA,"",   491.561E-03,  -487.957E-03,   59.4201E-03,   4.05610E-03
C:/temp/dataset/test2/11_4.odb,Step-1,Increment      1: Step Time =    1.000,"PART-1-1",           440,           -1.,      -10.3125,            0.,NA,NA,"",   519.347E-03,  -517.849E-03,  -39.4157E-03,   2.57404E-03
C:/temp/dataset/test2/11_4.odb,Step-1,Increment      1: Step Time =    1.000,"PART-1-1",           441,            0.,        -11.25,            0.,NA,NA,"",   484.138E-03,  -484.099E-03,  -6.17403E-03,   3.42043E-03
C:/temp/dataset/test2/11_4.odb,Step-1,Increment      1: Step Time =    1.000,"PART-1-1",           442,           -3.,      -10.3125,            0.,NA,NA,"",   527.271E-03,  -516.317E-03,  -106.916E-03,   1.83313E-03
C:/temp/dataset/test2/11_4.odb,Step-1,Increment      1: Step Time =    1.000,"PART-1-1",           443,           -2.,        -11.25,            0.,NA,NA,"",   487.459E-03,  -482.128E-03,  -71.8984E-03,   2.59460E-03
C:/temp/dataset/test2/11_4.odb,Step-1,Increment      1: Step Time =    1.000,"PART-1-1",           444,           -5.,      -10.3125,            0.,NA,NA,"",   545.478E-03,  -515.797E-03,  -177.483E-03,   1.07144E-03
C:/temp/dataset/test2/11_4.odb,Step-1,Increment      1: Step Time =    1.000,"PART-1-1",           445,           -4.,        -11.25,            0.,NA,NA,"",   501.594E-03,  -481.646E-03,  -140.048E-03,   1.73094E-03
C:/temp/dataset/test2/11_4.odb,Step-1,Increment      1: Step Time =    1.000,"PART-1-1",           446,            3.,      -12.1875,            0.,NA,NA,"",   463.001E-03,  -453.745E-03,   92.1152E-03,   3.91877E-03
C:/temp/dataset/test2/11_4.odb,Step-1,Increment      1: Step Time =    1.000,"PART-1-1",           447,            4.,       -13.125,            0.,NA,NA,"",   437.684E-03,  -419.161E-03,   125.981E-03,   3.06436E-03
C:/temp/dataset/test2/11_4.odb,Step-1,Increment      1: Step Time =    1.000,"PART-1-1",           448,            5.,      -12.1875,            0.,NA,NA,"",   486.170E-03,  -457.295E-03,   165.055E-03,   2.99264E-03
C:/temp/dataset/test2/11_4.odb,Step-1,Increment      1: Step Time =    1.000,"PART-1-1",           449,            1.,      -12.1875,            0.,NA,NA,"",   450.817E-03,  -450.054E-03,   26.2167E-03,   3.96797E-03
C:/temp/dataset/test2/11_4.odb,Step-1,Increment      1: Step Time =    1.000,"PART-1-1",           450,            2.,       -13.125,            0.,NA,NA,"",   419.840E-03,  -415.792E-03,   58.1594E-03,   3.80075E-03
C:/temp/dataset/test2/11_4.odb,Step-1,Increment      1: Step Time =    1.000,"PART-1-1",           451,           -1.,      -12.1875,            0.,NA,NA,"",   449.397E-03,  -447.779E-03,  -38.1071E-03,   3.40523E-03
C:/temp/dataset/test2/11_4.odb,Step-1,Increment      1: Step Time =    1.000,"PART-1-1",           452,            0.,       -13.125,            0.,NA,NA,"",   413.458E-03,  -413.421E-03,  -5.52261E-03,   3.83781E-03
C:/temp/dataset/test2/11_4.odb,Step-1,Increment      1: Step Time =    1.000,"PART-1-1",           453,           -3.,      -12.1875,            0.,NA,NA,"",   458.999E-03,  -447.109E-03,  -103.796E-03,   2.72824E-03
C:/temp/dataset/test2/11_4.odb,Step-1,Increment      1: Step Time =    1.000,"PART-1-1",           454,           -2.,       -13.125,            0.,NA,NA,"",   418.223E-03,  -412.485E-03,  -69.0409E-03,   3.32874E-03
C:/temp/dataset/test2/11_4.odb,Step-1,Increment      1: Step Time =    1.000,"PART-1-1",           455,           -5.,      -12.1875,            0.,NA,NA,"",   480.057E-03,  -447.587E-03,  -173.554E-03,   2.36351E-03
C:/temp/dataset/test2/11_4.odb,Step-1,Increment      1: Step Time =    1.000,"PART-1-1",           456,           -4.,       -13.125,            0.,NA,NA,"",   434.654E-03,  -413.019E-03,  -135.424E-03,   2.87321E-03
C:/temp/dataset/test2/11_4.odb,Step-1,Increment      1: Step Time =    1.000,"PART-1-1",           457,            3.,      -14.0625,            0.,NA,NA,"",   392.509E-03,  -382.054E-03,   89.9900E-03,   3.58417E-03
C:/temp/dataset/test2/11_4.odb,Step-1,Increment      1: Step Time =    1.000,"PART-1-1",           458,            4.,          -15.,            0.,NA,NA,"",   370.288E-03,  -349.862E-03,   121.284E-03,   4.38130E-03
C:/temp/dataset/test2/11_4.odb,Step-1,Increment      1: Step Time =    1.000,"PART-1-1",           459,            5.,      -14.0625,            0.,NA,NA,"",   418.109E-03,  -386.502E-03,   159.473E-03,   4.63845E-03
C:/temp/dataset/test2/11_4.odb,Step-1,Increment      1: Step Time =    1.000,"PART-1-1",           460,            1.,      -14.0625,            0.,NA,NA,"",   380.217E-03,  -379.325E-03,   26.0276E-03,   4.02414E-03
C:/temp/dataset/test2/11_4.odb,Step-1,Increment      1: Step Time =    1.000,"PART-1-1",           461,            2.,          -15.,            0.,NA,NA,"",   350.658E-03,  -346.053E-03,   56.6445E-03,   3.73666E-03
C:/temp/dataset/test2/11_4.odb,Step-1,Increment      1: Step Time =    1.000,"PART-1-1",           462,           -1.,      -14.0625,            0.,NA,NA,"",   379.753E-03,  -378.054E-03,  -35.8875E-03,   3.87504E-03
C:/temp/dataset/test2/11_4.odb,Step-1,Increment      1: Step Time =    1.000,"PART-1-1",           463,            0.,          -15.,            0.,NA,NA,"",   344.194E-03,  -344.167E-03,  -4.32344E-03,   3.88158E-03
C:/temp/dataset/test2/11_4.odb,Step-1,Increment      1: Step Time =    1.000,"PART-1-1",           464,           -3.,      -14.0625,            0.,NA,NA,"",   391.166E-03,  -378.384E-03,  -99.1795E-03,   3.58745E-03
C:/temp/dataset/test2/11_4.odb,Step-1,Increment      1: Step Time =    1.000,"PART-1-1",           465,           -2.,          -15.,            0.,NA,NA,"",   350.153E-03,  -344.068E-03,  -64.9922E-03,   3.84727E-03
C:/temp/dataset/test2/11_4.odb,Step-1,Increment      1: Step Time =    1.000,"PART-1-1",           466,           -5.,      -14.0625,            0.,NA,NA,"",   415.232E-03,  -380.115E-03,  -167.123E-03,   3.96807E-03
C:/temp/dataset/test2/11_4.odb,Step-1,Increment      1: Step Time =    1.000,"PART-1-1",           467,           -4.,          -15.,            0.,NA,NA,"",   368.893E-03,  -345.701E-03,  -128.734E-03,   4.15398E-03
C:/temp/dataset/test2/11_4.odb,Step-1,Increment      1: Step Time =    1.000,"PART-1-1",           468,            3.,      -15.9375,            0.,NA,NA,"",   325.870E-03,  -314.277E-03,   86.1464E-03,   4.31035E-03
C:/temp/dataset/test2/11_4.odb,Step-1,Increment      1: Step Time =    1.000,"PART-1-1",           469,            4.,       -16.875,            0.,NA,NA,"",   306.569E-03,  -284.477E-03,   114.270E-03,   5.63677E-03
C:/temp/dataset/test2/11_4.odb,Step-1,Increment      1: Step Time =    1.000,"PART-1-1",           470,            5.,      -15.9375,            0.,NA,NA,"",   353.778E-03,  -319.682E-03,   151.533E-03,   6.16317E-03
C:/temp/dataset/test2/11_4.odb,Step-1,Increment      1: Step Time =    1.000,"PART-1-1",           471,            1.,      -15.9375,            0.,NA,NA,"",   312.343E-03,  -311.288E-03,   25.6507E-03,   3.99322E-03
C:/temp/dataset/test2/11_4.odb,Step-1,Increment      1: Step Time =    1.000,"PART-1-1",           472,            2.,       -16.875,            0.,NA,NA,"",   285.084E-03,  -279.935E-03,   53.9383E-03,   4.11658E-03
C:/temp/dataset/test2/11_4.odb,Step-1,Increment      1: Step Time =    1.000,"PART-1-1",           473,           -1.,      -15.9375,            0.,NA,NA,"",   312.202E-03,  -310.460E-03,  -32.9329E-03,   4.08418E-03
C:/temp/dataset/test2/11_4.odb,Step-1,Increment      1: Step Time =    1.000,"PART-1-1",           474,            0.,       -16.875,            0.,NA,NA,"",   278.004E-03,  -277.987E-03,  -3.04508E-03,   3.86197E-03
C:/temp/dataset/test2/11_4.odb,Step-1,Increment      1: Step Time =    1.000,"PART-1-1",           475,           -3.,      -15.9375,            0.,NA,NA,"",   325.236E-03,  -311.671E-03,  -92.9485E-03,   4.41712E-03
C:/temp/dataset/test2/11_4.odb,Step-1,Increment      1: Step Time =    1.000,"PART-1-1",           476,           -2.,       -16.875,            0.,NA,NA,"",   284.802E-03,  -278.443E-03,  -59.8453E-03,   4.27251E-03
C:/temp/dataset/test2/11_4.odb,Step-1,Increment      1: Step Time =    1.000,"PART-1-1",           477,           -5.,      -15.9375,            0.,NA,NA,"",   352.137E-03,  -314.765E-03,  -157.872E-03,   5.70916E-03
C:/temp/dataset/test2/11_4.odb,Step-1,Increment      1: Step Time =    1.000,"PART-1-1",           478,           -4.,       -16.875,            0.,NA,NA,"",   305.637E-03,  -281.157E-03,  -119.851E-03,   5.48663E-03
C:/temp/dataset/test2/11_4.odb,Step-1,Increment      1: Step Time =    1.000,"PART-1-1",           479,            3.,      -17.8125,            0.,NA,NA,"",   263.138E-03,  -250.560E-03,   80.3843E-03,   5.20594E-03
C:/temp/dataset/test2/11_4.odb,Step-1,Increment      1: Step Time =    1.000,"PART-1-1",           480,            4.,        -18.75,            0.,NA,NA,"",   246.914E-03,  -223.528E-03,   104.888E-03,   6.93006E-03
C:/temp/dataset/test2/11_4.odb,Step-1,Increment      1: Step Time =    1.000,"PART-1-1",           481,            5.,      -17.8125,            0.,NA,NA,"",   293.068E-03,  -256.981E-03,   140.888E-03,   7.72120E-03
C:/temp/dataset/test2/11_4.odb,Step-1,Increment      1: Step Time =    1.000,"PART-1-1",           482,            1.,      -17.8125,            0.,NA,NA,"",   248.320E-03,  -247.099E-03,   24.5914E-03,   4.08145E-03
C:/temp/dataset/test2/11_4.odb,Step-1,Increment      1: Step Time =    1.000,"PART-1-1",           483,            2.,        -18.75,            0.,NA,NA,"",   223.845E-03,  -218.216E-03,   49.8806E-03,   4.61933E-03
C:/temp/dataset/test2/11_4.odb,Step-1,Increment      1: Step Time =    1.000,"PART-1-1",           484,           -1.,      -17.8125,            0.,NA,NA,"",   248.195E-03,  -246.437E-03,  -29.4869E-03,   4.19766E-03
C:/temp/dataset/test2/11_4.odb,Step-1,Increment      1: Step Time =    1.000,"PART-1-1",           485,            0.,        -18.75,            0.,NA,NA,"",   216.079E-03,  -216.070E-03,  -1.93617E-03,   3.85060E-03
C:/temp/dataset/test2/11_4.odb,Step-1,Increment      1: Step Time =    1.000,"PART-1-1",           486,           -3.,      -17.8125,            0.,NA,NA,"",   262.592E-03,  -248.414E-03,  -85.1176E-03,   5.26073E-03
C:/temp/dataset/test2/11_4.odb,Step-1,Increment      1: Step Time =    1.000,"PART-1-1",           487,           -2.,        -18.75,            0.,NA,NA,"",   223.499E-03,  -216.950E-03,  -53.7083E-03,   4.70483E-03
C:/temp/dataset/test2/11_4.odb,Step-1,Increment      1: Step Time =    1.000,"PART-1-1",           488,           -5.,      -17.8125,            0.,NA,NA,"",   291.893E-03,  -252.902E-03,  -145.747E-03,   7.47024E-03
C:/temp/dataset/test2/11_4.odb,Step-1,Increment      1: Step Time =    1.000,"PART-1-1",           489,           -4.,        -18.75,            0.,NA,NA,"",   246.073E-03,  -220.725E-03,  -108.776E-03,   6.82858E-03
C:/temp/dataset/test2/11_4.odb,Step-1,Increment      1: Step Time =    1.000,"PART-1-1",           490,            3.,      -19.6875,            0.,NA,NA,"",   205.047E-03,  -191.712E-03,   72.7373E-03,   6.14052E-03
C:/temp/dataset/test2/11_4.odb,Step-1,Increment      1: Step Time =    1.000,"PART-1-1",           491,            4.,       -20.625,            0.,NA,NA,"",   192.016E-03,  -167.926E-03,   93.1181E-03,   8.24487E-03
C:/temp/dataset/test2/11_4.odb,Step-1,Increment      1: Step Time =    1.000,"PART-1-1",           492,            5.,      -19.6875,            0.,NA,NA,"",   236.423E-03,  -199.151E-03,   127.417E-03,   9.34372E-03
C:/temp/dataset/test2/11_4.odb,Step-1,Increment      1: Step Time =    1.000,"PART-1-1",           493,            1.,      -19.6875,            0.,NA,NA,"",   189.117E-03,  -187.746E-03,   22.7322E-03,   4.24142E-03
C:/temp/dataset/test2/11_4.odb,Step-1,Increment      1: Step Time =    1.000,"PART-1-1",           494,            2.,       -20.625,            0.,NA,NA,"",   167.838E-03,  -161.844E-03,   44.4531E-03,   5.17052E-03
C:/temp/dataset/test2/11_4.odb,Step-1,Increment      1: Step Time =    1.000,"PART-1-1",           495,           -1.,      -19.6875,            0.,NA,NA,"",   188.925E-03,  -187.173E-03,  -25.6738E-03,   4.30848E-03
C:/temp/dataset/test2/11_4.odb,Step-1,Increment      1: Step Time =    1.000,"PART-1-1",           496,            0.,       -20.625,            0.,NA,NA,"",   159.478E-03,  -159.474E-03,  -1.06854E-03,   3.85204E-03
C:/temp/dataset/test2/11_4.odb,Step-1,Increment      1: Step Time =    1.000,"PART-1-1",           497,           -3.,      -19.6875,            0.,NA,NA,"",   204.424E-03,  -189.879E-03,  -75.7305E-03,   6.13925E-03
C:/temp/dataset/test2/11_4.odb,Step-1,Increment      1: Step Time =    1.000,"PART-1-1",           498,           -2.,       -20.625,            0.,NA,NA,"",   167.385E-03,  -160.758E-03,  -46.6314E-03,   5.18175E-03
C:/temp/dataset/test2/11_4.odb,Step-1,Increment      1: Step Time =    1.000,"PART-1-1",           499,           -5.,      -19.6875,            0.,NA,NA,"",   235.451E-03,  -195.767E-03,  -130.815E-03,   9.20841E-03
C:/temp/dataset/test2/11_4.odb,Step-1,Increment      1: Step Time =    1.000,"PART-1-1",           500,           -4.,       -20.625,            0.,NA,NA,"",   191.184E-03,  -165.594E-03,  -95.5511E-03,   8.16803E-03
C:/temp/dataset/test2/11_4.odb,Step-1,Increment      1: Step Time =    1.000,"PART-1-1",           501,            3.,      -21.5625,            0.,NA,NA,"",   152.433E-03,  -138.721E-03,   63.1851E-03,   7.09900E-03
C:/temp/dataset/test2/11_4.odb,Step-1,Increment      1: Step Time =    1.000,"PART-1-1",           502,            4.,         -22.5,            0.,NA,NA,"",   142.561E-03,  -118.723E-03,   78.9208E-03,   9.56655E-03
C:/temp/dataset/test2/11_4.odb,Step-1,Increment      1: Step Time =    1.000,"PART-1-1",           503,            5.,      -21.5625,            0.,NA,NA,"",   184.353E-03,  -147.186E-03,   111.005E-03,   10.9865E-03
C:/temp/dataset/test2/11_4.odb,Step-1,Increment      1: Step Time =    1.000,"PART-1-1",           504,            1.,      -21.5625,            0.,NA,NA,"",   135.732E-03,  -134.243E-03,   20.0473E-03,   4.43850E-03
C:/temp/dataset/test2/11_4.odb,Step-1,Increment      1: Step Time =    1.000,"PART-1-1",           505,            2.,         -22.5,            0.,NA,NA,"",   118.019E-03,  -111.853E-03,   37.6484E-03,   5.76186E-03
C:/temp/dataset/test2/11_4.odb,Step-1,Increment      1: Step Time =    1.000,"PART-1-1",           506,           -1.,      -21.5625,            0.,NA,NA,"",   135.474E-03,  -133.754E-03,  -21.5191E-03,   4.45034E-03
C:/temp/dataset/test2/11_4.odb,Step-1,Increment      1: Step Time =    1.000,"PART-1-1",           507,            0.,         -22.5,            0.,NA,NA,"",   109.258E-03,  -109.257E-03,  -450.139E-06,   3.87513E-03
C:/temp/dataset/test2/11_4.odb,Step-1,Increment      1: Step Time =    1.000,"PART-1-1",           508,           -3.,      -21.5625,            0.,NA,NA,"",   151.735E-03,  -137.196E-03,  -64.8131E-03,   7.05734E-03
C:/temp/dataset/test2/11_4.odb,Step-1,Increment      1: Step Time =    1.000,"PART-1-1",           509,           -2.,         -22.5,            0.,NA,NA,"",   117.485E-03,  -110.954E-03,  -38.6241E-03,   5.71677E-03
C:/temp/dataset/test2/11_4.odb,Step-1,Increment      1: Step Time =    1.000,"PART-1-1",           510,           -5.,      -21.5625,            0.,NA,NA,"",   183.518E-03,  -144.487E-03,  -113.148E-03,   10.9086E-03
C:/temp/dataset/test2/11_4.odb,Step-1,Increment      1: Step Time =    1.000,"PART-1-1",           511,           -4.,         -22.5,            0.,NA,NA,"",   141.752E-03,  -116.870E-03,  -80.2185E-03,   9.49464E-03
C:/temp/dataset/test2/11_4.odb,Step-1,Increment      1: Step Time =    1.000,"PART-1-1",           512,            3.,      -23.4375,            0.,NA,NA,"",   106.118E-03,  -92.6626E-03,   51.7175E-03,   8.07112E-03
C:/temp/dataset/test2/11_4.odb,Step-1,Increment      1: Step Time =    1.000,"PART-1-1",           513,            4.,       -24.375,            0.,NA,NA,"",   98.9951E-03,  -76.9519E-03,   62.2770E-03,   10.9114E-03
C:/temp/dataset/test2/11_4.odb,Step-1,Increment      1: Step Time =    1.000,"PART-1-1",           514,            5.,      -23.4375,            0.,NA,NA,"",   137.243E-03,  -102.159E-03,   91.6465E-03,   12.6428E-03
C:/temp/dataset/test2/11_4.odb,Step-1,Increment      1: Step Time =    1.000,"PART-1-1",           515,            1.,      -23.4375,            0.,NA,NA,"",   89.1917E-03,  -87.6442E-03,   16.5427E-03,   4.68535E-03
C:/temp/dataset/test2/11_4.odb,Step-1,Increment      1: Step Time =    1.000,"PART-1-1",           516,            2.,       -24.375,            0.,NA,NA,"",   75.2756E-03,  -69.2954E-03,   29.4036E-03,   6.38460E-03
C:/temp/dataset/test2/11_4.odb,Step-1,Increment      1: Step Time =    1.000,"PART-1-1",           517,           -1.,      -23.4375,            0.,NA,NA,"",   88.8885E-03,  -87.2431E-03,  -17.0240E-03,   4.65023E-03
C:/temp/dataset/test2/11_4.odb,Step-1,Increment      1: Step Time =    1.000,"PART-1-1",           518,            0.,       -24.375,            0.,NA,NA,"",   66.4544E-03,  -66.4543E-03,  -69.8751E-06,   3.92330E-03
C:/temp/dataset/test2/11_4.odb,Step-1,Increment      1: Step Time =    1.000,"PART-1-1",           519,           -3.,      -23.4375,            0.,NA,NA,"",   105.391E-03,  -91.4540E-03,  -52.3772E-03,   7.99815E-03
C:/temp/dataset/test2/11_4.odb,Step-1,Increment      1: Step Time =    1.000,"PART-1-1",           520,           -2.,       -24.375,            0.,NA,NA,"",   74.7064E-03,  -68.5856E-03,  -29.6151E-03,   6.29512E-03
C:/temp/dataset/test2/11_4.odb,Step-1,Increment      1: Step Time =    1.000,"PART-1-1",           521,           -5.,      -23.4375,            0.,NA,NA,"",   136.543E-03,  -100.137E-03,  -92.8263E-03,   12.5928E-03
C:/temp/dataset/test2/11_4.odb,Step-1,Increment      1: Step Time =    1.000,"PART-1-1",           522,           -4.,       -24.375,            0.,NA,NA,"",   98.2501E-03,  -75.5657E-03,  -62.7926E-03,   10.8381E-03
C:/temp/dataset/test2/11_4.odb,Step-1,Increment      1: Step Time =    1.000,"PART-1-1",           523,            3.,      -25.3125,            0.,NA,NA,"",   66.6011E-03,  -54.5337E-03,   38.2333E-03,   9.15404E-03
C:/temp/dataset/test2/11_4.odb,Step-1,Increment      1: Step Time =    1.000,"PART-1-1",           524,            4.,        -26.25,            0.,NA,NA,"",   61.5325E-03,  -43.7222E-03,   43.2969E-03,   12.2117E-03
C:/temp/dataset/test2/11_4.odb,Step-1,Increment      1: Step Time =    1.000,"PART-1-1",           525,            5.,      -25.3125,            0.,NA,NA,"",   95.0871E-03,  -65.0427E-03,   69.3614E-03,   14.1098E-03
C:/temp/dataset/test2/11_4.odb,Step-1,Increment      1: Step Time =    1.000,"PART-1-1",           526,            1.,      -25.3125,            0.,NA,NA,"",   50.4790E-03,  -48.9954E-03,   12.1483E-03,   4.92560E-03
C:/temp/dataset/test2/11_4.odb,Step-1,Increment      1: Step Time =    1.000,"PART-1-1",           527,            2.,        -26.25,            0.,NA,NA,"",   40.4222E-03,  -35.2302E-03,   19.8188E-03,   7.11736E-03
C:/temp/dataset/test2/11_4.odb,Step-1,Increment      1: Step Time =    1.000,"PART-1-1",           528,           -1.,      -25.3125,            0.,NA,NA,"",   50.1597E-03,  -48.6810E-03,  -12.0896E-03,   4.84965E-03
C:/temp/dataset/test2/11_4.odb,Step-1,Increment      1: Step Time =    1.000,"PART-1-1",           529,            0.,        -26.25,            0.,NA,NA,"",   32.2343E-03,  -32.2342E-03,   89.4007E-06,   3.93063E-03
C:/temp/dataset/test2/11_4.odb,Step-1,Increment      1: Step Time =    1.000,"PART-1-1",           530,           -3.,      -25.3125,            0.,NA,NA,"",   65.9061E-03,  -53.6250E-03,  -38.3141E-03,   9.05780E-03
C:/temp/dataset/test2/11_4.odb,Step-1,Increment      1: Step Time =    1.000,"PART-1-1",           531,           -2.,        -26.25,            0.,NA,NA,"",   39.8859E-03,  -34.6929E-03,  -19.6796E-03,   6.99636E-03
C:/temp/dataset/test2/11_4.odb,Step-1,Increment      1: Step Time =    1.000,"PART-1-1",           532,           -5.,      -25.3125,            0.,NA,NA,"",   94.5383E-03,  -63.6569E-03,  -69.8949E-03,   14.0707E-03
C:/temp/dataset/test2/11_4.odb,Step-1,Increment      1: Step Time =    1.000,"PART-1-1",           533,           -4.,        -26.25,            0.,NA,NA,"",   60.9046E-03,  -42.7636E-03,  -43.3664E-03,   12.1339E-03
C:/temp/dataset/test2/11_4.odb,Step-1,Increment      1: Step Time =    1.000,"PART-1-1",           534,            3.,      -27.1875,            0.,NA,NA,"",   34.0382E-03,  -25.1593E-03,   22.9262E-03,   10.0242E-03
C:/temp/dataset/test2/11_4.odb,Step-1,Increment      1: Step Time =    1.000,"PART-1-1",           535,            4.,       -28.125,            0.,NA,NA,"",   28.1212E-03,  -18.1596E-03,   21.4717E-03,   13.7449E-03
C:/temp/dataset/test2/11_4.odb,Step-1,Increment      1: Step Time =    1.000,"PART-1-1",           536,            5.,      -27.1875,            0.,NA,NA,"",   58.0233E-03,  -36.7507E-03,   44.9009E-03,   15.8844E-03
C:/temp/dataset/test2/11_4.odb,Step-1,Increment      1: Step Time =    1.000,"PART-1-1",           537,            1.,      -27.1875,            0.,NA,NA,"",   20.9552E-03,  -19.7117E-03,   7.11108E-03,   4.87774E-03
C:/temp/dataset/test2/11_4.odb,Step-1,Increment      1: Step Time =    1.000,"PART-1-1",           538,            2.,       -28.125,            0.,NA,NA,"",   14.3123E-03,  -10.9860E-03,   9.17335E-03,   7.39816E-03
C:/temp/dataset/test2/11_4.odb,Step-1,Increment      1: Step Time =    1.000,"PART-1-1",           539,           -1.,      -27.1875,            0.,NA,NA,"",   20.6749E-03,  -19.4827E-03,  -6.91923E-03,   4.77489E-03
C:/temp/dataset/test2/11_4.odb,Step-1,Increment      1: Step Time =    1.000,"PART-1-1",           540,            0.,       -28.125,            0.,NA,NA,"",   8.61929E-03,  -8.61899E-03,   72.9655E-06,   3.29471E-03
C:/temp/dataset/test2/11_4.odb,Step-1,Increment      1: Step Time =    1.000,"PART-1-1",           541,           -3.,      -27.1875,            0.,NA,NA,"",   33.4721E-03,  -24.5244E-03,  -22.7801E-03,   9.89786E-03
C:/temp/dataset/test2/11_4.odb,Step-1,Increment      1: Step Time =    1.000,"PART-1-1",           542,           -2.,       -28.125,            0.,NA,NA,"",   13.9556E-03,  -10.6467E-03,  -9.02250E-03,   7.23860E-03
C:/temp/dataset/test2/11_4.odb,Step-1,Increment      1: Step Time =    1.000,"PART-1-1",           543,           -5.,      -27.1875,            0.,NA,NA,"",   57.6268E-03,  -35.9152E-03,  -45.0660E-03,   15.8750E-03
C:/temp/dataset/test2/11_4.odb,Step-1,Increment      1: Step Time =    1.000,"PART-1-1",           544,           -4.,       -28.125,            0.,NA,NA,"",   27.6564E-03,  -17.5739E-03,  -21.3550E-03,   13.6628E-03
C:/temp/dataset/test2/11_4.odb,Step-1,Increment      1: Step Time =    1.000,"PART-1-1",           545,            3.,      -29.0625,            0.,NA,NA,"",   8.18200E-03,  -4.60150E-03,   6.76545E-03,   9.18683E-03
C:/temp/dataset/test2/11_4.odb,Step-1,Increment      1: Step Time =    1.000,"PART-1-1",           546,            4.,          -30.,            0.,NA,NA,"",            0.,  -161.949E-42,   17.5684E-39,   14.6604E-03
C:/temp/dataset/test2/11_4.odb,Step-1,Increment      1: Step Time =    1.000,"PART-1-1",           547,            5.,      -29.0625,            0.,NA,NA,"",   21.7250E-03,  -14.7255E-03,   15.9729E-03,   18.7172E-03
C:/temp/dataset/test2/11_4.odb,Step-1,Increment      1: Step Time =    1.000,"PART-1-1",           548,            1.,      -29.0625,            0.,NA,NA,"",   3.20294E-03,  -2.38230E-03,   2.14090E-03,   3.21382E-03
C:/temp/dataset/test2/11_4.odb,Step-1,Increment      1: Step Time =    1.000,"PART-1-1",           549,            2.,          -30.,            0.,NA,NA,"",            0.,  -332.318E-42,   8.37649E-39,   5.28626E-03
C:/temp/dataset/test2/11_4.odb,Step-1,Increment      1: Step Time =    1.000,"PART-1-1",           550,           -1.,      -29.0625,            0.,NA,NA,"",   3.08275E-03,  -2.27676E-03,  -2.07839E-03,   3.11619E-03
C:/temp/dataset/test2/11_4.odb,Step-1,Increment      1: Step Time =    1.000,"PART-1-1",           551,            0.,          -30.,            0.,NA,NA,"",            0.,   251.997E-42,   3.71484E-42,   28.4861E-06
C:/temp/dataset/test2/11_4.odb,Step-1,Increment      1: Step Time =    1.000,"PART-1-1",           552,           -3.,      -29.0625,            0.,NA,NA,"",   7.95603E-03,  -4.30263E-03,  -6.69222E-03,   9.04139E-03
C:/temp/dataset/test2/11_4.odb,Step-1,Increment      1: Step Time =    1.000,"PART-1-1",           553,           -2.,          -30.,            0.,NA,NA,"",            0.,  -256.445E-42,  -8.36161E-39,   5.21570E-03
C:/temp/dataset/test2/11_4.odb,Step-1,Increment      1: Step Time =    1.000,"PART-1-1",           554,           -5.,      -29.0625,            0.,NA,NA,"",   21.4837E-03,  -14.4188E-03,  -15.9263E-03,   18.5839E-03
C:/temp/dataset/test2/11_4.odb,Step-1,Increment      1: Step Time =    1.000,"PART-1-1",           555,           -4.,          -30.,            0.,NA,NA,"",            0.,  -42.9722E-42,  -17.5122E-39,   14.4606E-03
