ODB Name,Step,Frame,Part Instance Name,    êﬂì_ÉâÉxÉã,X,Y,Z,Section Name,Material Name,Section Point,   U-Magnitude,          U-U1,          U-U2,       S-Mises
C:/temp/dataset/test2/12_9.odb,Step-1,Increment      1: Step Time =    1.000,"PART-1-1",             1,            5.,           30.,            0.,NA,NA,"",       3.02109,      -3.01482,   194.455E-03,   173.255E-09
C:/temp/dataset/test2/12_9.odb,Step-1,Increment      1: Step Time =    1.000,"PART-1-1",             2,            3.,           30.,            0.,NA,NA,"",       3.01338,      -3.01206,   89.3684E-03,   159.014E-09
C:/temp/dataset/test2/12_9.odb,Step-1,Increment      1: Step Time =    1.000,"PART-1-1",             3,            1.,           30.,            0.,NA,NA,"",       3.00934,      -3.00930,  -15.7177E-03,   160.160E-09
C:/temp/dataset/test2/12_9.odb,Step-1,Increment      1: Step Time =    1.000,"PART-1-1",             4,           -1.,           30.,            0.,NA,NA,"",       3.00896,      -3.00653,  -120.804E-03,   164.641E-09
C:/temp/dataset/test2/12_9.odb,Step-1,Increment      1: Step Time =    1.000,"PART-1-1",             5,           -3.,           30.,            0.,NA,NA,"",       3.01225,      -3.00377,  -225.890E-03,   171.340E-09
C:/temp/dataset/test2/12_9.odb,Step-1,Increment      1: Step Time =    1.000,"PART-1-1",             6,           -5.,           30.,            0.,NA,NA,"",       3.01920,      -3.00101,  -330.976E-03,   174.323E-09
C:/temp/dataset/test2/12_9.odb,Step-1,Increment      1: Step Time =    1.000,"PART-1-1",             7,            5.,        28.125,            0.,NA,NA,"",       2.92295,      -2.91630,   197.044E-03,   173.782E-09
C:/temp/dataset/test2/12_9.odb,Step-1,Increment      1: Step Time =    1.000,"PART-1-1",             8,            3.,        28.125,            0.,NA,NA,"",       2.91499,      -2.91354,   91.9583E-03,   166.614E-09
C:/temp/dataset/test2/12_9.odb,Step-1,Increment      1: Step Time =    1.000,"PART-1-1",             9,            1.,        28.125,            0.,NA,NA,"",       2.91081,      -2.91078,  -13.1278E-03,   163.721E-09
C:/temp/dataset/test2/12_9.odb,Step-1,Increment      1: Step Time =    1.000,"PART-1-1",            10,           -1.,        28.125,            0.,NA,NA,"",       2.91042,      -2.90802,  -118.214E-03,   163.435E-09
C:/temp/dataset/test2/12_9.odb,Step-1,Increment      1: Step Time =    1.000,"PART-1-1",            11,           -3.,        28.125,            0.,NA,NA,"",       2.91382,      -2.90525,  -223.300E-03,   163.664E-09
C:/temp/dataset/test2/12_9.odb,Step-1,Increment      1: Step Time =    1.000,"PART-1-1",            12,           -5.,        28.125,            0.,NA,NA,"",       2.92101,      -2.90249,  -328.386E-03,   160.092E-09
C:/temp/dataset/test2/12_9.odb,Step-1,Increment      1: Step Time =    1.000,"PART-1-1",            13,            5.,         26.25,            0.,NA,NA,"",       2.82485,      -2.81778,   199.634E-03,   174.803E-09
C:/temp/dataset/test2/12_9.odb,Step-1,Increment      1: Step Time =    1.000,"PART-1-1",            14,            3.,         26.25,            0.,NA,NA,"",       2.81661,      -2.81502,   94.5482E-03,   168.492E-09
C:/temp/dataset/test2/12_9.odb,Step-1,Increment      1: Step Time =    1.000,"PART-1-1",            15,            1.,         26.25,            0.,NA,NA,"",       2.81228,      -2.81226,  -10.5380E-03,   164.160E-09
C:/temp/dataset/test2/12_9.odb,Step-1,Increment      1: Step Time =    1.000,"PART-1-1",            16,           -1.,         26.25,            0.,NA,NA,"",       2.81188,      -2.80950,  -115.624E-03,   161.134E-09
C:/temp/dataset/test2/12_9.odb,Step-1,Increment      1: Step Time =    1.000,"PART-1-1",            17,           -3.,         26.25,            0.,NA,NA,"",       2.81540,      -2.80673,  -220.710E-03,   158.575E-09
C:/temp/dataset/test2/12_9.odb,Step-1,Increment      1: Step Time =    1.000,"PART-1-1",            18,           -5.,         26.25,            0.,NA,NA,"",       2.82284,      -2.80397,  -325.796E-03,   156.857E-09
C:/temp/dataset/test2/12_9.odb,Step-1,Increment      1: Step Time =    1.000,"PART-1-1",            19,            5.,        24.375,            0.,NA,NA,"",       2.72678,      -2.71927,   202.224E-03,   177.475E-09
C:/temp/dataset/test2/12_9.odb,Step-1,Increment      1: Step Time =    1.000,"PART-1-1",            20,            3.,        24.375,            0.,NA,NA,"",       2.71824,      -2.71650,   97.1380E-03,   169.390E-09
C:/temp/dataset/test2/12_9.odb,Step-1,Increment      1: Step Time =    1.000,"PART-1-1",            21,            1.,        24.375,            0.,NA,NA,"",       2.71375,      -2.71374,  -7.94808E-03,   163.073E-09
C:/temp/dataset/test2/12_9.odb,Step-1,Increment      1: Step Time =    1.000,"PART-1-1",            22,           -1.,        24.375,            0.,NA,NA,"",       2.71333,      -2.71098,  -113.034E-03,   158.095E-09
C:/temp/dataset/test2/12_9.odb,Step-1,Increment      1: Step Time =    1.000,"PART-1-1",            23,           -3.,        24.375,            0.,NA,NA,"",       2.71699,      -2.70822,  -218.120E-03,   154.285E-09
C:/temp/dataset/test2/12_9.odb,Step-1,Increment      1: Step Time =    1.000,"PART-1-1",            24,           -5.,        24.375,            0.,NA,NA,"",       2.72469,      -2.70545,  -323.206E-03,   152.221E-09
C:/temp/dataset/test2/12_9.odb,Step-1,Increment      1: Step Time =    1.000,"PART-1-1",            25,            5.,          22.5,            0.,NA,NA,"",       2.62874,      -2.62075,   204.814E-03,   180.629E-09
C:/temp/dataset/test2/12_9.odb,Step-1,Increment      1: Step Time =    1.000,"PART-1-1",            26,            3.,          22.5,            0.,NA,NA,"",       2.61988,      -2.61799,   99.7279E-03,   169.497E-09
C:/temp/dataset/test2/12_9.odb,Step-1,Increment      1: Step Time =    1.000,"PART-1-1",            27,            1.,          22.5,            0.,NA,NA,"",       2.61523,      -2.61522,  -5.35821E-03,   160.786E-09
C:/temp/dataset/test2/12_9.odb,Step-1,Increment      1: Step Time =    1.000,"PART-1-1",            28,           -1.,          22.5,            0.,NA,NA,"",       2.61479,      -2.61246,  -110.444E-03,   154.145E-09
C:/temp/dataset/test2/12_9.odb,Step-1,Increment      1: Step Time =    1.000,"PART-1-1",            29,           -3.,          22.5,            0.,NA,NA,"",       2.61858,      -2.60970,  -215.530E-03,   149.513E-09
C:/temp/dataset/test2/12_9.odb,Step-1,Increment      1: Step Time =    1.000,"PART-1-1",            30,           -5.,          22.5,            0.,NA,NA,"",       2.62658,      -2.60694,  -320.617E-03,   147.125E-09
C:/temp/dataset/test2/12_9.odb,Step-1,Increment      1: Step Time =    1.000,"PART-1-1",            31,            5.,        20.625,            0.,NA,NA,"",       2.53074,      -2.52223,   207.404E-03,   183.924E-09
C:/temp/dataset/test2/12_9.odb,Step-1,Increment      1: Step Time =    1.000,"PART-1-1",            32,            3.,        20.625,            0.,NA,NA,"",       2.52154,      -2.51947,   102.318E-03,   168.578E-09
C:/temp/dataset/test2/12_9.odb,Step-1,Increment      1: Step Time =    1.000,"PART-1-1",            33,            1.,        20.625,            0.,NA,NA,"",       2.51671,      -2.51670,  -2.76834E-03,   157.072E-09
C:/temp/dataset/test2/12_9.odb,Step-1,Increment      1: Step Time =    1.000,"PART-1-1",            34,           -1.,        20.625,            0.,NA,NA,"",       2.51625,      -2.51394,  -107.854E-03,   148.857E-09
C:/temp/dataset/test2/12_9.odb,Step-1,Increment      1: Step Time =    1.000,"PART-1-1",            35,           -3.,        20.625,            0.,NA,NA,"",       2.52019,      -2.51118,  -212.940E-03,   143.830E-09
C:/temp/dataset/test2/12_9.odb,Step-1,Increment      1: Step Time =    1.000,"PART-1-1",            36,           -5.,        20.625,            0.,NA,NA,"",       2.52850,      -2.50842,  -318.027E-03,   141.855E-09
C:/temp/dataset/test2/12_9.odb,Step-1,Increment      1: Step Time =    1.000,"PART-1-1",            37,            5.,         18.75,            0.,NA,NA,"",       2.43279,      -2.42371,   209.994E-03,   186.777E-09
C:/temp/dataset/test2/12_9.odb,Step-1,Increment      1: Step Time =    1.000,"PART-1-1",            38,            3.,         18.75,            0.,NA,NA,"",       2.42322,      -2.42095,   104.908E-03,   165.927E-09
C:/temp/dataset/test2/12_9.odb,Step-1,Increment      1: Step Time =    1.000,"PART-1-1",            39,            1.,         18.75,            0.,NA,NA,"",       2.41819,      -2.41819,  -178.475E-06,   151.538E-09
C:/temp/dataset/test2/12_9.odb,Step-1,Increment      1: Step Time =    1.000,"PART-1-1",            40,           -1.,         18.75,            0.,NA,NA,"",       2.41772,      -2.41542,  -105.264E-03,   141.654E-09
C:/temp/dataset/test2/12_9.odb,Step-1,Increment      1: Step Time =    1.000,"PART-1-1",            41,           -3.,         18.75,            0.,NA,NA,"",       2.42181,      -2.41266,  -210.351E-03,   136.697E-09
C:/temp/dataset/test2/12_9.odb,Step-1,Increment      1: Step Time =    1.000,"PART-1-1",            42,           -5.,         18.75,            0.,NA,NA,"",       2.43046,      -2.40990,  -315.437E-03,   136.319E-09
C:/temp/dataset/test2/12_9.odb,Step-1,Increment      1: Step Time =    1.000,"PART-1-1",            43,            5.,        16.875,            0.,NA,NA,"",       2.33489,      -2.32519,   212.583E-03,   186.249E-09
C:/temp/dataset/test2/12_9.odb,Step-1,Increment      1: Step Time =    1.000,"PART-1-1",            44,            3.,        16.875,            0.,NA,NA,"",       2.32492,      -2.32243,   107.497E-03,   160.693E-09
C:/temp/dataset/test2/12_9.odb,Step-1,Increment      1: Step Time =    1.000,"PART-1-1",            45,            1.,        16.875,            0.,NA,NA,"",       2.31967,      -2.31967,   2.41138E-03,   145.390E-09
C:/temp/dataset/test2/12_9.odb,Step-1,Increment      1: Step Time =    1.000,"PART-1-1",            46,           -1.,        16.875,            0.,NA,NA,"",       2.31918,      -2.31691,  -102.675E-03,   133.240E-09
C:/temp/dataset/test2/12_9.odb,Step-1,Increment      1: Step Time =    1.000,"PART-1-1",            47,           -3.,        16.875,            0.,NA,NA,"",       2.32345,      -2.31414,  -207.761E-03,   127.889E-09
C:/temp/dataset/test2/12_9.odb,Step-1,Increment      1: Step Time =    1.000,"PART-1-1",            48,           -5.,        16.875,            0.,NA,NA,"",       2.33246,      -2.31138,  -312.847E-03,   130.205E-09
C:/temp/dataset/test2/12_9.odb,Step-1,Increment      1: Step Time =    1.000,"PART-1-1",            49,            5.,           15.,            0.,NA,NA,"",       2.23705,      -2.22668,   215.173E-03,   173.740E-09
C:/temp/dataset/test2/12_9.odb,Step-1,Increment      1: Step Time =    1.000,"PART-1-1",            50,            3.,           15.,            0.,NA,NA,"",       2.22664,      -2.22391,   110.087E-03,   156.746E-09
C:/temp/dataset/test2/12_9.odb,Step-1,Increment      1: Step Time =    1.000,"PART-1-1",            51,            1.,           15.,            0.,NA,NA,"",       2.22116,      -2.22115,   5.00120E-03,   150.941E-09
C:/temp/dataset/test2/12_9.odb,Step-1,Increment      1: Step Time =    1.000,"PART-1-1",            52,           -1.,           15.,            0.,NA,NA,"",       2.22064,      -2.21839,  -100.085E-03,   135.414E-09
C:/temp/dataset/test2/12_9.odb,Step-1,Increment      1: Step Time =    1.000,"PART-1-1",            53,           -3.,           15.,            0.,NA,NA,"",       2.22510,      -2.21562,  -205.171E-03,   124.360E-09
C:/temp/dataset/test2/12_9.odb,Step-1,Increment      1: Step Time =    1.000,"PART-1-1",            54,           -5.,           15.,            0.,NA,NA,"",       2.23451,      -2.21286,  -310.257E-03,   125.905E-09
C:/temp/dataset/test2/12_9.odb,Step-1,Increment      1: Step Time =    1.000,"PART-1-1",            55,            5.,        13.125,            0.,NA,NA,"",       2.13927,      -2.12816,   217.763E-03,   137.571E-09
C:/temp/dataset/test2/12_9.odb,Step-1,Increment      1: Step Time =    1.000,"PART-1-1",            56,            3.,        13.125,            0.,NA,NA,"",       2.12838,      -2.12539,   112.677E-03,   184.677E-09
C:/temp/dataset/test2/12_9.odb,Step-1,Increment      1: Step Time =    1.000,"PART-1-1",            57,            1.,        13.125,            0.,NA,NA,"",       2.12265,      -2.12263,   7.59094E-03,   211.080E-09
C:/temp/dataset/test2/12_9.odb,Step-1,Increment      1: Step Time =    1.000,"PART-1-1",            58,           -1.,        13.125,            0.,NA,NA,"",       2.12211,      -2.11987,  -97.4950E-03,   193.177E-09
C:/temp/dataset/test2/12_9.odb,Step-1,Increment      1: Step Time =    1.000,"PART-1-1",            59,           -3.,        13.125,            0.,NA,NA,"",       2.12678,      -2.11711,  -202.581E-03,   164.692E-09
C:/temp/dataset/test2/12_9.odb,Step-1,Increment      1: Step Time =    1.000,"PART-1-1",            60,           -5.,        13.125,            0.,NA,NA,"",       2.13661,      -2.11434,  -307.667E-03,   151.257E-09
C:/temp/dataset/test2/12_9.odb,Step-1,Increment      1: Step Time =    1.000,"PART-1-1",            61,            5.,         11.25,            0.,NA,NA,"",       2.04157,      -2.02964,   220.353E-03,   166.492E-09
C:/temp/dataset/test2/12_9.odb,Step-1,Increment      1: Step Time =    1.000,"PART-1-1",            62,            3.,         11.25,            0.,NA,NA,"",       2.03015,      -2.02688,   115.267E-03,   307.074E-09
C:/temp/dataset/test2/12_9.odb,Step-1,Increment      1: Step Time =    1.000,"PART-1-1",            63,            1.,         11.25,            0.,NA,NA,"",       2.02414,      -2.02411,   10.1805E-03,   369.715E-09
C:/temp/dataset/test2/12_9.odb,Step-1,Increment      1: Step Time =    1.000,"PART-1-1",            64,           -1.,         11.25,            0.,NA,NA,"",       2.02358,      -2.02135,  -94.9053E-03,   350.397E-09
C:/temp/dataset/test2/12_9.odb,Step-1,Increment      1: Step Time =    1.000,"PART-1-1",            65,           -3.,         11.25,            0.,NA,NA,"",       2.02847,      -2.01859,  -199.991E-03,   302.991E-09
C:/temp/dataset/test2/12_9.odb,Step-1,Increment      1: Step Time =    1.000,"PART-1-1",            66,           -5.,         11.25,            0.,NA,NA,"",       2.03878,      -2.01583,  -305.076E-03,   295.342E-09
C:/temp/dataset/test2/12_9.odb,Step-1,Increment      1: Step Time =    1.000,"PART-1-1",            67,            5.,         9.375,            0.,NA,NA,"",       1.94395,      -1.93112,   222.943E-03,   485.735E-09
C:/temp/dataset/test2/12_9.odb,Step-1,Increment      1: Step Time =    1.000,"PART-1-1",            68,            3.,         9.375,            0.,NA,NA,"",       1.93196,      -1.92836,   117.857E-03,   528.019E-09
C:/temp/dataset/test2/12_9.odb,Step-1,Increment      1: Step Time =    1.000,"PART-1-1",            69,            1.,         9.375,            0.,NA,NA,"",       1.92564,      -1.92560,   12.7698E-03,   605.371E-09
C:/temp/dataset/test2/12_9.odb,Step-1,Increment      1: Step Time =    1.000,"PART-1-1",            70,           -1.,         9.375,            0.,NA,NA,"",       1.92505,      -1.92283,  -92.3160E-03,   582.663E-09
C:/temp/dataset/test2/12_9.odb,Step-1,Increment      1: Step Time =    1.000,"PART-1-1",            71,           -3.,         9.375,            0.,NA,NA,"",       1.93019,      -1.92007,  -197.401E-03,   530.752E-09
C:/temp/dataset/test2/12_9.odb,Step-1,Increment      1: Step Time =    1.000,"PART-1-1",            72,           -5.,         9.375,            0.,NA,NA,"",       1.94102,      -1.91731,  -302.486E-03,   653.949E-09
C:/temp/dataset/test2/12_9.odb,Step-1,Increment      1: Step Time =    1.000,"PART-1-1",            73,            5.,           7.5,            0.,NA,NA,"",       1.84643,      -1.83260,   225.535E-03,   1.10612E-06
C:/temp/dataset/test2/12_9.odb,Step-1,Increment      1: Step Time =    1.000,"PART-1-1",            74,            3.,           7.5,            0.,NA,NA,"",       1.83380,      -1.82984,   120.447E-03,   700.864E-09
C:/temp/dataset/test2/12_9.odb,Step-1,Increment      1: Step Time =    1.000,"PART-1-1",            75,            1.,           7.5,            0.,NA,NA,"",       1.82714,      -1.82708,   15.3588E-03,   773.755E-09
C:/temp/dataset/test2/12_9.odb,Step-1,Increment      1: Step Time =    1.000,"PART-1-1",            76,           -1.,           7.5,            0.,NA,NA,"",       1.82652,      -1.82432,  -89.7269E-03,   744.358E-09
C:/temp/dataset/test2/12_9.odb,Step-1,Increment      1: Step Time =    1.000,"PART-1-1",            77,           -3.,           7.5,            0.,NA,NA,"",       1.83194,      -1.82155,  -194.811E-03,   700.544E-09
C:/temp/dataset/test2/12_9.odb,Step-1,Increment      1: Step Time =    1.000,"PART-1-1",            78,           -5.,           7.5,            0.,NA,NA,"",       1.84335,      -1.81879,  -299.894E-03,   1.28954E-06
C:/temp/dataset/test2/12_9.odb,Step-1,Increment      1: Step Time =    1.000,"PART-1-1",            79,            5.,         5.625,            0.,NA,NA,"",       1.74902,      -1.73408,   228.127E-03,   1.88476E-06
C:/temp/dataset/test2/12_9.odb,Step-1,Increment      1: Step Time =    1.000,"PART-1-1",            80,            3.,         5.625,            0.,NA,NA,"",       1.73569,      -1.73132,   123.037E-03,   487.952E-09
C:/temp/dataset/test2/12_9.odb,Step-1,Increment      1: Step Time =    1.000,"PART-1-1",            81,            1.,         5.625,            0.,NA,NA,"",       1.72865,      -1.72856,   17.9481E-03,   1.08881E-06
C:/temp/dataset/test2/12_9.odb,Step-1,Increment      1: Step Time =    1.000,"PART-1-1",            82,           -1.,         5.625,            0.,NA,NA,"",       1.72800,      -1.72580,  -87.1376E-03,   1.07115E-06
C:/temp/dataset/test2/12_9.odb,Step-1,Increment      1: Step Time =    1.000,"PART-1-1",            83,           -3.,         5.625,            0.,NA,NA,"",       1.73373,      -1.72304,  -192.221E-03,   465.728E-09
C:/temp/dataset/test2/12_9.odb,Step-1,Increment      1: Step Time =    1.000,"PART-1-1",            84,           -5.,         5.625,            0.,NA,NA,"",       1.74578,      -1.72028,  -297.301E-03,   2.07117E-06
C:/temp/dataset/test2/12_9.odb,Step-1,Increment      1: Step Time =    1.000,"PART-1-1",            85,            5.,          3.75,            0.,NA,NA,"",       1.65175,      -1.63556,   230.721E-03,   1.96896E-06
C:/temp/dataset/test2/12_9.odb,Step-1,Increment      1: Step Time =    1.000,"PART-1-1",            86,            3.,          3.75,            0.,NA,NA,"",       1.63762,      -1.63280,   125.627E-03,   2.75148E-06
C:/temp/dataset/test2/12_9.odb,Step-1,Increment      1: Step Time =    1.000,"PART-1-1",            87,            1.,          3.75,            0.,NA,NA,"",       1.63017,      -1.63004,   20.5396E-03,   4.54435E-06
C:/temp/dataset/test2/12_9.odb,Step-1,Increment      1: Step Time =    1.000,"PART-1-1",            88,           -1.,          3.75,            0.,NA,NA,"",       1.62948,      -1.62728,  -84.5464E-03,   4.55411E-06
C:/temp/dataset/test2/12_9.odb,Step-1,Increment      1: Step Time =    1.000,"PART-1-1",            89,           -3.,          3.75,            0.,NA,NA,"",       1.63556,      -1.62453,  -189.631E-03,   2.75490E-06
C:/temp/dataset/test2/12_9.odb,Step-1,Increment      1: Step Time =    1.000,"PART-1-1",            90,           -5.,          3.75,            0.,NA,NA,"",       1.64833,      -1.62177,  -294.708E-03,   2.12936E-06
C:/temp/dataset/test2/12_9.odb,Step-1,Increment      1: Step Time =    1.000,"PART-1-1",            91,            5.,         1.875,            0.,NA,NA,"",       1.55463,      -1.53702,   233.314E-03,   1.72093E-06
C:/temp/dataset/test2/12_9.odb,Step-1,Increment      1: Step Time =    1.000,"PART-1-1",            92,            3.,         1.875,            0.,NA,NA,"",       1.53961,      -1.53426,   128.217E-03,   11.4211E-06
C:/temp/dataset/test2/12_9.odb,Step-1,Increment      1: Step Time =    1.000,"PART-1-1",            93,            1.,         1.875,            0.,NA,NA,"",       1.53169,      -1.53151,   23.1391E-03,   15.2991E-06
C:/temp/dataset/test2/12_9.odb,Step-1,Increment      1: Step Time =    1.000,"PART-1-1",            94,           -1.,         1.875,            0.,NA,NA,"",       1.53097,      -1.52878,  -81.9478E-03,   15.2691E-06
C:/temp/dataset/test2/12_9.odb,Step-1,Increment      1: Step Time =    1.000,"PART-1-1",            95,           -3.,         1.875,            0.,NA,NA,"",       1.53745,      -1.52603,  -187.042E-03,   11.3976E-06
C:/temp/dataset/test2/12_9.odb,Step-1,Increment      1: Step Time =    1.000,"PART-1-1",            96,           -5.,         1.875,            0.,NA,NA,"",       1.55102,      -1.52327,  -292.117E-03,   1.66528E-06
C:/temp/dataset/test2/12_9.odb,Step-1,Increment      1: Step Time =    1.000,"PART-1-1",            97,            5.,            0.,            0.,NA,NA,"",       1.45768,      -1.43847,   235.895E-03,   16.2480E-06
C:/temp/dataset/test2/12_9.odb,Step-1,Increment      1: Step Time =    1.000,"PART-1-1",            98,            3.,            0.,            0.,NA,NA,"",       1.44165,      -1.43570,   130.808E-03,   33.1420E-06
C:/temp/dataset/test2/12_9.odb,Step-1,Increment      1: Step Time =    1.000,"PART-1-1",            99,            1.,            0.,            0.,NA,NA,"",       1.43321,      -1.43298,   25.7595E-03,   40.5063E-06
C:/temp/dataset/test2/12_9.odb,Step-1,Increment      1: Step Time =    1.000,"PART-1-1",           100,           -1.,            0.,            0.,NA,NA,"",       1.43248,      -1.43028,  -79.3297E-03,   40.1979E-06
C:/temp/dataset/test2/12_9.odb,Step-1,Increment      1: Step Time =    1.000,"PART-1-1",           101,           -3.,            0.,            0.,NA,NA,"",       1.43942,      -1.42755,  -184.455E-03,   32.5914E-06
C:/temp/dataset/test2/12_9.odb,Step-1,Increment      1: Step Time =    1.000,"PART-1-1",           102,           -5.,            0.,            0.,NA,NA,"",       1.45391,      -1.42478,  -289.539E-03,   16.0918E-06
C:/temp/dataset/test2/12_9.odb,Step-1,Increment      1: Step Time =    1.000,"PART-1-1",           103,            5.,        -1.875,            0.,NA,NA,"",       1.36094,      -1.33989,   238.435E-03,   57.9910E-06
C:/temp/dataset/test2/12_9.odb,Step-1,Increment      1: Step Time =    1.000,"PART-1-1",           104,            3.,        -1.875,            0.,NA,NA,"",       1.34375,      -1.33711,   133.400E-03,   79.0097E-06
C:/temp/dataset/test2/12_9.odb,Step-1,Increment      1: Step Time =    1.000,"PART-1-1",           105,            1.,        -1.875,            0.,NA,NA,"",       1.33474,      -1.33443,   28.4268E-03,   90.1585E-06
C:/temp/dataset/test2/12_9.odb,Step-1,Increment      1: Step Time =    1.000,"PART-1-1",           106,           -1.,        -1.875,            0.,NA,NA,"",       1.33400,      -1.33180,  -76.6692E-03,   88.1904E-06
C:/temp/dataset/test2/12_9.odb,Step-1,Increment      1: Step Time =    1.000,"PART-1-1",           107,           -3.,        -1.875,            0.,NA,NA,"",       1.34149,      -1.32910,  -181.873E-03,   75.0508E-06
C:/temp/dataset/test2/12_9.odb,Step-1,Increment      1: Step Time =    1.000,"PART-1-1",           108,           -5.,        -1.875,            0.,NA,NA,"",       1.35702,      -1.32632,  -287.005E-03,   56.5538E-06
C:/temp/dataset/test2/12_9.odb,Step-1,Increment      1: Step Time =    1.000,"PART-1-1",           109,            5.,         -3.75,            0.,NA,NA,"",       1.26446,      -1.24131,   240.857E-03,   160.397E-06
C:/temp/dataset/test2/12_9.odb,Step-1,Increment      1: Step Time =    1.000,"PART-1-1",           110,            3.,         -3.75,            0.,NA,NA,"",       1.24594,      -1.23850,   135.992E-03,   158.860E-06
C:/temp/dataset/test2/12_9.odb,Step-1,Increment      1: Step Time =    1.000,"PART-1-1",           111,            1.,         -3.75,            0.,NA,NA,"",       1.23629,      -1.23589,   31.1798E-03,   168.366E-06
C:/temp/dataset/test2/12_9.odb,Step-1,Increment      1: Step Time =    1.000,"PART-1-1",           112,           -1.,         -3.75,            0.,NA,NA,"",       1.23555,      -1.23334,  -73.9353E-03,   160.349E-06
C:/temp/dataset/test2/12_9.odb,Step-1,Increment      1: Step Time =    1.000,"PART-1-1",           113,           -3.,         -3.75,            0.,NA,NA,"",       1.24366,      -1.23067,  -179.299E-03,   141.521E-06
C:/temp/dataset/test2/12_9.odb,Step-1,Increment      1: Step Time =    1.000,"PART-1-1",           114,           -5.,         -3.75,            0.,NA,NA,"",       1.26038,      -1.22784,  -284.573E-03,   146.663E-06
C:/temp/dataset/test2/12_9.odb,Step-1,Increment      1: Step Time =    1.000,"PART-1-1",           115,            5.,        -5.625,            0.,NA,NA,"",       1.16838,      -1.14283,   243.040E-03,   366.483E-06
C:/temp/dataset/test2/12_9.odb,Step-1,Increment      1: Step Time =    1.000,"PART-1-1",           116,            3.,        -5.625,            0.,NA,NA,"",       1.14836,      -1.13997,   138.600E-03,   268.519E-06
C:/temp/dataset/test2/12_9.odb,Step-1,Increment      1: Step Time =    1.000,"PART-1-1",           117,            1.,        -5.625,            0.,NA,NA,"",       1.13793,      -1.13742,   34.0549E-03,   251.064E-06
C:/temp/dataset/test2/12_9.odb,Step-1,Increment      1: Step Time =    1.000,"PART-1-1",           118,           -1.,        -5.625,            0.,NA,NA,"",       1.13708,      -1.13486,  -71.1122E-03,   224.049E-06
C:/temp/dataset/test2/12_9.odb,Step-1,Increment      1: Step Time =    1.000,"PART-1-1",           119,           -3.,        -5.625,            0.,NA,NA,"",       1.14586,      -1.13215,  -176.743E-03,   202.064E-06
C:/temp/dataset/test2/12_9.odb,Step-1,Increment      1: Step Time =    1.000,"PART-1-1",           120,           -5.,        -5.625,            0.,NA,NA,"",       1.16398,      -1.12922,  -282.344E-03,   305.185E-06
C:/temp/dataset/test2/12_9.odb,Step-1,Increment      1: Step Time =    1.000,"PART-1-1",           121,            5.,          -7.5,            0.,NA,NA,"",       1.07314,      -1.04489,   244.604E-03,   784.020E-06
C:/temp/dataset/test2/12_9.odb,Step-1,Increment      1: Step Time =    1.000,"PART-1-1",           122,            3.,          -7.5,            0.,NA,NA,"",       1.05142,      -1.04190,   141.212E-03,   264.544E-06
C:/temp/dataset/test2/12_9.odb,Step-1,Increment      1: Step Time =    1.000,"PART-1-1",           123,            1.,          -7.5,            0.,NA,NA,"",       1.03981,      -1.03915,   36.9826E-03,   296.324E-06
C:/temp/dataset/test2/12_9.odb,Step-1,Increment      1: Step Time =    1.000,"PART-1-1",           124,           -1.,          -7.5,            0.,NA,NA,"",       1.03844,      -1.03620,  -68.2840E-03,   216.555E-06
C:/temp/dataset/test2/12_9.odb,Step-1,Increment      1: Step Time =    1.000,"PART-1-1",           125,           -3.,          -7.5,            0.,NA,NA,"",       1.04783,      -1.03324,  -174.213E-03,   156.067E-06
C:/temp/dataset/test2/12_9.odb,Step-1,Increment      1: Step Time =    1.000,"PART-1-1",           126,           -5.,          -7.5,            0.,NA,NA,"",       1.06764,      -1.03016,  -280.413E-03,   501.485E-06
C:/temp/dataset/test2/12_9.odb,Step-1,Increment      1: Step Time =    1.000,"PART-1-1",           127,            5.,        -9.375,            0.,NA,NA,"",   979.940E-03,  -948.696E-03,   245.476E-03,   1.78313E-03
C:/temp/dataset/test2/12_9.odb,Step-1,Increment      1: Step Time =    1.000,"PART-1-1",           128,            3.,        -9.375,            0.,NA,NA,"",   956.111E-03,  -945.211E-03,   143.958E-03,   1.11742E-03
C:/temp/dataset/test2/12_9.odb,Step-1,Increment      1: Step Time =    1.000,"PART-1-1",           129,            1.,        -9.375,            0.,NA,NA,"",   942.009E-03,  -941.182E-03,   39.4628E-03,   1.06056E-03
C:/temp/dataset/test2/12_9.odb,Step-1,Increment      1: Step Time =    1.000,"PART-1-1",           130,           -1.,        -9.375,            0.,NA,NA,"",   939.126E-03,  -936.823E-03,  -65.7333E-03,   761.675E-06
C:/temp/dataset/test2/12_9.odb,Step-1,Increment      1: Step Time =    1.000,"PART-1-1",           131,           -3.,        -9.375,            0.,NA,NA,"",   948.940E-03,  -933.284E-03,  -171.667E-03,   342.696E-06
C:/temp/dataset/test2/12_9.odb,Step-1,Increment      1: Step Time =    1.000,"PART-1-1",           132,           -5.,        -9.375,            0.,NA,NA,"",   970.952E-03,  -930.086E-03,  -278.725E-03,   569.150E-06
C:/temp/dataset/test2/12_9.odb,Step-1,Increment      1: Step Time =    1.000,"PART-1-1",           133,            5.,        -11.25,            0.,NA,NA,"",   895.374E-03,  -861.498E-03,   243.960E-03,   4.87430E-03
C:/temp/dataset/test2/12_9.odb,Step-1,Increment      1: Step Time =    1.000,"PART-1-1",           134,            3.,        -11.25,            0.,NA,NA,"",   863.936E-03,  -851.759E-03,   144.542E-03,   5.20037E-03
C:/temp/dataset/test2/12_9.odb,Step-1,Increment      1: Step Time =    1.000,"PART-1-1",           135,            1.,        -11.25,            0.,NA,NA,"",   843.231E-03,  -842.277E-03,   40.1086E-03,   3.36690E-03
C:/temp/dataset/test2/12_9.odb,Step-1,Increment      1: Step Time =    1.000,"PART-1-1",           136,           -1.,        -11.25,            0.,NA,NA,"",   837.905E-03,  -835.470E-03,  -63.8369E-03,   2.33827E-03
C:/temp/dataset/test2/12_9.odb,Step-1,Increment      1: Step Time =    1.000,"PART-1-1",           137,           -3.,        -11.25,            0.,NA,NA,"",   848.247E-03,  -831.270E-03,  -168.854E-03,   1.39682E-03
C:/temp/dataset/test2/12_9.odb,Step-1,Increment      1: Step Time =    1.000,"PART-1-1",           138,           -5.,        -11.25,            0.,NA,NA,"",   873.281E-03,  -828.259E-03,  -276.779E-03,   164.276E-06
C:/temp/dataset/test2/12_9.odb,Step-1,Increment      1: Step Time =    1.000,"PART-1-1",           139,            5.,       -13.125,            0.,NA,NA,"",   808.253E-03,  -769.340E-03,   247.768E-03,   9.55796E-03
C:/temp/dataset/test2/12_9.odb,Step-1,Increment      1: Step Time =    1.000,"PART-1-1",           140,            3.,       -13.125,            0.,NA,NA,"",   765.583E-03,  -752.601E-03,   140.386E-03,   9.68316E-03
C:/temp/dataset/test2/12_9.odb,Step-1,Increment      1: Step Time =    1.000,"PART-1-1",           141,            1.,       -13.125,            0.,NA,NA,"",   739.498E-03,  -738.506E-03,   38.2810E-03,   6.49118E-03
C:/temp/dataset/test2/12_9.odb,Step-1,Increment      1: Step Time =    1.000,"PART-1-1",           142,           -1.,       -13.125,            0.,NA,NA,"",   733.073E-03,  -730.415E-03,  -62.3720E-03,   4.66562E-03
C:/temp/dataset/test2/12_9.odb,Step-1,Increment      1: Step Time =    1.000,"PART-1-1",           143,           -3.,       -13.125,            0.,NA,NA,"",   744.886E-03,  -726.361E-03,  -165.089E-03,   3.10457E-03
C:/temp/dataset/test2/12_9.odb,Step-1,Increment      1: Step Time =    1.000,"PART-1-1",           144,           -5.,       -13.125,            0.,NA,NA,"",   774.118E-03,  -724.245E-03,  -273.362E-03,   1.18330E-03
C:/temp/dataset/test2/12_9.odb,Step-1,Increment      1: Step Time =    1.000,"PART-1-1",           145,            5.,          -15.,            0.,NA,NA,"",   697.916E-03,  -651.697E-03,   249.756E-03,   6.69814E-03
C:/temp/dataset/test2/12_9.odb,Step-1,Increment      1: Step Time =    1.000,"PART-1-1",           146,            3.,          -15.,            0.,NA,NA,"",   652.522E-03,  -638.381E-03,   135.112E-03,   10.3829E-03
C:/temp/dataset/test2/12_9.odb,Step-1,Increment      1: Step Time =    1.000,"PART-1-1",           147,            1.,          -15.,            0.,NA,NA,"",   628.878E-03,  -627.837E-03,   36.1667E-03,   8.76439E-03
C:/temp/dataset/test2/12_9.odb,Step-1,Increment      1: Step Time =    1.000,"PART-1-1",           148,           -1.,          -15.,            0.,NA,NA,"",   624.332E-03,  -621.435E-03,  -60.0717E-03,   6.92980E-03
C:/temp/dataset/test2/12_9.odb,Step-1,Increment      1: Step Time =    1.000,"PART-1-1",           149,           -3.,          -15.,            0.,NA,NA,"",   639.071E-03,  -618.904E-03,  -159.280E-03,   5.14084E-03
C:/temp/dataset/test2/12_9.odb,Step-1,Increment      1: Step Time =    1.000,"PART-1-1",           150,           -5.,          -15.,            0.,NA,NA,"",   673.671E-03,  -618.634E-03,  -266.691E-03,   3.61223E-03
C:/temp/dataset/test2/12_9.odb,Step-1,Increment      1: Step Time =    1.000,"PART-1-1",           151,            5.,       -16.875,            0.,NA,NA,"",   582.527E-03,  -530.587E-03,   240.449E-03,   8.89218E-03
C:/temp/dataset/test2/12_9.odb,Step-1,Increment      1: Step Time =    1.000,"PART-1-1",           152,            3.,       -16.875,            0.,NA,NA,"",   537.468E-03,  -521.210E-03,   131.193E-03,   7.68875E-03
C:/temp/dataset/test2/12_9.odb,Step-1,Increment      1: Step Time =    1.000,"PART-1-1",           153,            1.,       -16.875,            0.,NA,NA,"",   516.139E-03,  -514.910E-03,   35.5975E-03,   9.19327E-03
C:/temp/dataset/test2/12_9.odb,Step-1,Increment      1: Step Time =    1.000,"PART-1-1",           154,           -1.,       -16.875,            0.,NA,NA,"",   514.282E-03,  -511.242E-03,  -55.8308E-03,   8.39997E-03
C:/temp/dataset/test2/12_9.odb,Step-1,Increment      1: Step Time =    1.000,"PART-1-1",           155,           -3.,       -16.875,            0.,NA,NA,"",   532.685E-03,  -511.001E-03,  -150.437E-03,   7.14587E-03
C:/temp/dataset/test2/12_9.odb,Step-1,Increment      1: Step Time =    1.000,"PART-1-1",           156,           -5.,       -16.875,            0.,NA,NA,"",   573.234E-03,  -513.367E-03,  -255.054E-03,   6.95753E-03
C:/temp/dataset/test2/12_9.odb,Step-1,Increment      1: Step Time =    1.000,"PART-1-1",           157,            5.,        -18.75,            0.,NA,NA,"",   479.708E-03,  -423.220E-03,   225.842E-03,   12.1851E-03
C:/temp/dataset/test2/12_9.odb,Step-1,Increment      1: Step Time =    1.000,"PART-1-1",           158,            3.,        -18.75,            0.,NA,NA,"",   430.669E-03,  -412.152E-03,   124.927E-03,   8.75705E-03
C:/temp/dataset/test2/12_9.odb,Step-1,Increment      1: Step Time =    1.000,"PART-1-1",           159,            1.,        -18.75,            0.,NA,NA,"",   407.513E-03,  -405.975E-03,   35.3687E-03,   8.95152E-03
C:/temp/dataset/test2/12_9.odb,Step-1,Increment      1: Step Time =    1.000,"PART-1-1",           160,           -1.,        -18.75,            0.,NA,NA,"",   406.995E-03,  -403.943E-03,  -49.7547E-03,   9.06153E-03
C:/temp/dataset/test2/12_9.odb,Step-1,Increment      1: Step Time =    1.000,"PART-1-1",           161,           -3.,        -18.75,            0.,NA,NA,"",   428.756E-03,  -405.903E-03,  -138.109E-03,   9.01694E-03
C:/temp/dataset/test2/12_9.odb,Step-1,Increment      1: Step Time =    1.000,"PART-1-1",           162,           -5.,        -18.75,            0.,NA,NA,"",   474.928E-03,  -411.334E-03,  -237.405E-03,   10.7970E-03
C:/temp/dataset/test2/12_9.odb,Step-1,Increment      1: Step Time =    1.000,"PART-1-1",           163,            5.,       -20.625,            0.,NA,NA,"",   383.939E-03,  -324.665E-03,   204.943E-03,   15.5973E-03
C:/temp/dataset/test2/12_9.odb,Step-1,Increment      1: Step Time =    1.000,"PART-1-1",           164,            3.,       -20.625,            0.,NA,NA,"",   331.777E-03,  -311.537E-03,   114.109E-03,   10.6948E-03
C:/temp/dataset/test2/12_9.odb,Step-1,Increment      1: Step Time =    1.000,"PART-1-1",           165,            1.,       -20.625,            0.,NA,NA,"",   306.389E-03,  -304.517E-03,   33.8184E-03,   9.04890E-03
C:/temp/dataset/test2/12_9.odb,Step-1,Increment      1: Step Time =    1.000,"PART-1-1",           166,           -1.,       -20.625,            0.,NA,NA,"",   306.099E-03,  -303.136E-03,  -42.4920E-03,   9.35277E-03
C:/temp/dataset/test2/12_9.odb,Step-1,Increment      1: Step Time =    1.000,"PART-1-1",           167,           -3.,       -20.625,            0.,NA,NA,"",   330.456E-03,  -306.998E-03,  -122.284E-03,   10.8602E-03
C:/temp/dataset/test2/12_9.odb,Step-1,Increment      1: Step Time =    1.000,"PART-1-1",           168,           -5.,       -20.625,            0.,NA,NA,"",   381.043E-03,  -315.665E-03,  -213.423E-03,   14.7762E-03
C:/temp/dataset/test2/12_9.odb,Step-1,Increment      1: Step Time =    1.000,"PART-1-1",           169,            5.,         -22.5,            0.,NA,NA,"",   295.594E-03,  -236.173E-03,   177.759E-03,   19.1398E-03
C:/temp/dataset/test2/12_9.odb,Step-1,Increment      1: Step Time =    1.000,"PART-1-1",           170,            3.,         -22.5,            0.,NA,NA,"",   242.000E-03,  -220.903E-03,   98.8230E-03,   12.8101E-03
C:/temp/dataset/test2/12_9.odb,Step-1,Increment      1: Step Time =    1.000,"PART-1-1",           171,            1.,         -22.5,            0.,NA,NA,"",   214.922E-03,  -212.773E-03,   30.3117E-03,   9.39945E-03
C:/temp/dataset/test2/12_9.odb,Step-1,Increment      1: Step Time =    1.000,"PART-1-1",           172,           -1.,         -22.5,            0.,NA,NA,"",   214.458E-03,  -211.668E-03,  -34.4747E-03,   9.58931E-03
C:/temp/dataset/test2/12_9.odb,Step-1,Increment      1: Step Time =    1.000,"PART-1-1",           173,           -3.,         -22.5,            0.,NA,NA,"",   240.488E-03,  -217.287E-03,  -103.057E-03,   12.7901E-03
C:/temp/dataset/test2/12_9.odb,Step-1,Increment      1: Step Time =    1.000,"PART-1-1",           174,           -5.,         -22.5,            0.,NA,NA,"",   293.458E-03,  -229.233E-03,  -183.221E-03,   18.6763E-03
C:/temp/dataset/test2/12_9.odb,Step-1,Increment      1: Step Time =    1.000,"PART-1-1",           175,            5.,       -24.375,            0.,NA,NA,"",   215.091E-03,  -159.801E-03,   143.972E-03,   22.8158E-03
C:/temp/dataset/test2/12_9.odb,Step-1,Increment      1: Step Time =    1.000,"PART-1-1",           176,            3.,       -24.375,            0.,NA,NA,"",   162.844E-03,  -142.342E-03,   79.0998E-03,   14.9567E-03
C:/temp/dataset/test2/12_9.odb,Step-1,Increment      1: Step Time =    1.000,"PART-1-1",           177,            1.,       -24.375,            0.,NA,NA,"",   135.327E-03,  -133.049E-03,   24.7306E-03,   9.98563E-03
C:/temp/dataset/test2/12_9.odb,Step-1,Increment      1: Step Time =    1.000,"PART-1-1",           178,           -1.,       -24.375,            0.,NA,NA,"",   134.640E-03,  -132.122E-03,  -25.9163E-03,   9.99626E-03
C:/temp/dataset/test2/12_9.odb,Step-1,Increment      1: Step Time =    1.000,"PART-1-1",           179,           -3.,       -24.375,            0.,NA,NA,"",   161.070E-03,  -139.455E-03,  -80.5982E-03,   14.7854E-03
C:/temp/dataset/test2/12_9.odb,Step-1,Increment      1: Step Time =    1.000,"PART-1-1",           180,           -5.,       -24.375,            0.,NA,NA,"",   213.409E-03,  -154.719E-03,  -146.988E-03,   22.5661E-03
C:/temp/dataset/test2/12_9.odb,Step-1,Increment      1: Step Time =    1.000,"PART-1-1",           181,            5.,        -26.25,            0.,NA,NA,"",   142.228E-03,  -97.1361E-03,   103.891E-03,   25.7916E-03
C:/temp/dataset/test2/12_9.odb,Step-1,Increment      1: Step Time =    1.000,"PART-1-1",           182,            3.,        -26.25,            0.,NA,NA,"",   94.9150E-03,  -77.7878E-03,   54.3867E-03,   17.7161E-03
C:/temp/dataset/test2/12_9.odb,Step-1,Increment      1: Step Time =    1.000,"PART-1-1",           183,            1.,        -26.25,            0.,NA,NA,"",   69.8089E-03,  -67.7326E-03,   16.8990E-03,   10.1978E-03
C:/temp/dataset/test2/12_9.odb,Step-1,Increment      1: Step Time =    1.000,"PART-1-1",           184,           -1.,        -26.25,            0.,NA,NA,"",   68.9952E-03,  -66.9656E-03,  -16.6113E-03,   10.0196E-03
C:/temp/dataset/test2/12_9.odb,Step-1,Increment      1: Step Time =    1.000,"PART-1-1",           185,           -3.,        -26.25,            0.,NA,NA,"",   93.0866E-03,  -75.5850E-03,  -54.3325E-03,   17.4599E-03
C:/temp/dataset/test2/12_9.odb,Step-1,Increment      1: Step Time =    1.000,"PART-1-1",           186,           -5.,        -26.25,            0.,NA,NA,"",   140.918E-03,  -93.7023E-03,  -105.251E-03,   25.6498E-03
C:/temp/dataset/test2/12_9.odb,Step-1,Increment      1: Step Time =    1.000,"PART-1-1",           187,            5.,       -28.125,            0.,NA,NA,"",   76.0629E-03,  -48.8434E-03,   58.3085E-03,   31.7201E-03
C:/temp/dataset/test2/12_9.odb,Step-1,Increment      1: Step Time =    1.000,"PART-1-1",           188,            3.,       -28.125,            0.,NA,NA,"",   40.4088E-03,  -29.8365E-03,   27.2517E-03,   19.9111E-03
C:/temp/dataset/test2/12_9.odb,Step-1,Increment      1: Step Time =    1.000,"PART-1-1",           189,            1.,       -28.125,            0.,NA,NA,"",   22.1540E-03,  -20.6593E-03,   7.99962E-03,   9.50478E-03
C:/temp/dataset/test2/12_9.odb,Step-1,Increment      1: Step Time =    1.000,"PART-1-1",           190,           -1.,       -28.125,            0.,NA,NA,"",   21.5034E-03,  -20.1255E-03,  -7.57368E-03,   9.24002E-03
C:/temp/dataset/test2/12_9.odb,Step-1,Increment      1: Step Time =    1.000,"PART-1-1",           191,           -3.,       -28.125,            0.,NA,NA,"",   39.0760E-03,  -28.3514E-03,  -26.8912E-03,   19.4778E-03
C:/temp/dataset/test2/12_9.odb,Step-1,Increment      1: Step Time =    1.000,"PART-1-1",           192,           -5.,       -28.125,            0.,NA,NA,"",   75.0698E-03,  -46.9600E-03,  -58.5681E-03,   31.8996E-03
C:/temp/dataset/test2/12_9.odb,Step-1,Increment      1: Step Time =    1.000,"PART-1-1",           193,            5.,          -30.,            0.,NA,NA,"",            0.,  -10.3201E-39,   18.2959E-39,   43.7397E-03
C:/temp/dataset/test2/12_9.odb,Step-1,Increment      1: Step Time =    1.000,"PART-1-1",           194,            3.,          -30.,            0.,NA,NA,"",            0.,  -10.4155E-39,   22.6048E-39,   13.3175E-03
C:/temp/dataset/test2/12_9.odb,Step-1,Increment      1: Step Time =    1.000,"PART-1-1",           195,            1.,          -30.,            0.,NA,NA,"",            0.,  -2.47319E-39,   7.65750E-39,   5.05006E-03
C:/temp/dataset/test2/12_9.odb,Step-1,Increment      1: Step Time =    1.000,"PART-1-1",           196,           -1.,          -30.,            0.,NA,NA,"",            0.,   1.25463E-39,  -5.43322E-39,   4.80937E-03
C:/temp/dataset/test2/12_9.odb,Step-1,Increment      1: Step Time =    1.000,"PART-1-1",           197,           -3.,          -30.,            0.,NA,NA,"",            0.,  -5.85974E-39,  -19.7775E-39,   12.8193E-03
C:/temp/dataset/test2/12_9.odb,Step-1,Increment      1: Step Time =    1.000,"PART-1-1",           198,           -5.,          -30.,            0.,NA,NA,"",            0.,  -9.98151E-39,  -17.7626E-39,   43.0471E-03
C:/temp/dataset/test2/12_9.odb,Step-1,Increment      1: Step Time =    1.000,"PART-1-1",           199,            4.,           30.,            0.,NA,NA,"",       3.01678,      -3.01344,   141.912E-03,   165.088E-09
C:/temp/dataset/test2/12_9.odb,Step-1,Increment      1: Step Time =    1.000,"PART-1-1",           200,            3.,       29.0625,            0.,NA,NA,"",       2.96419,      -2.96280,   90.6634E-03,   162.823E-09
C:/temp/dataset/test2/12_9.odb,Step-1,Increment      1: Step Time =    1.000,"PART-1-1",           201,            4.,        28.125,            0.,NA,NA,"",       2.91850,      -2.91492,   144.501E-03,   170.186E-09
C:/temp/dataset/test2/12_9.odb,Step-1,Increment      1: Step Time =    1.000,"PART-1-1",           202,            5.,       29.0625,            0.,NA,NA,"",       2.97202,      -2.96556,   195.750E-03,   174.068E-09
C:/temp/dataset/test2/12_9.odb,Step-1,Increment      1: Step Time =    1.000,"PART-1-1",           203,            2.,           30.,            0.,NA,NA,"",       3.01090,      -3.01068,   36.8254E-03,   160.358E-09
C:/temp/dataset/test2/12_9.odb,Step-1,Increment      1: Step Time =    1.000,"PART-1-1",           204,            1.,       29.0625,            0.,NA,NA,"",       2.96007,      -2.96004,  -14.4228E-03,   161.932E-09
C:/temp/dataset/test2/12_9.odb,Step-1,Increment      1: Step Time =    1.000,"PART-1-1",           205,            2.,        28.125,            0.,NA,NA,"",       2.91243,      -2.91216,   39.4152E-03,   164.886E-09
C:/temp/dataset/test2/12_9.odb,Step-1,Increment      1: Step Time =    1.000,"PART-1-1",           206,            0.,           30.,            0.,NA,NA,"",       3.00869,      -3.00791,  -68.2608E-03,   162.400E-09
C:/temp/dataset/test2/12_9.odb,Step-1,Increment      1: Step Time =    1.000,"PART-1-1",           207,           -1.,       29.0625,            0.,NA,NA,"",       2.95969,      -2.95727,  -119.509E-03,   164.001E-09
C:/temp/dataset/test2/12_9.odb,Step-1,Increment      1: Step Time =    1.000,"PART-1-1",           208,            0.,        28.125,            0.,NA,NA,"",       2.91014,      -2.90940,  -65.6709E-03,   163.554E-09
C:/temp/dataset/test2/12_9.odb,Step-1,Increment      1: Step Time =    1.000,"PART-1-1",           209,           -2.,           30.,            0.,NA,NA,"",       3.01015,      -3.00515,  -173.347E-03,   167.368E-09
C:/temp/dataset/test2/12_9.odb,Step-1,Increment      1: Step Time =    1.000,"PART-1-1",           210,           -3.,       29.0625,            0.,NA,NA,"",       2.96304,      -2.95451,  -224.595E-03,   167.632E-09
C:/temp/dataset/test2/12_9.odb,Step-1,Increment      1: Step Time =    1.000,"PART-1-1",           211,           -2.,        28.125,            0.,NA,NA,"",       2.91165,      -2.90663,  -170.757E-03,   163.526E-09
C:/temp/dataset/test2/12_9.odb,Step-1,Increment      1: Step Time =    1.000,"PART-1-1",           212,           -4.,           30.,            0.,NA,NA,"",       3.01527,      -3.00239,  -278.433E-03,   173.449E-09
C:/temp/dataset/test2/12_9.odb,Step-1,Increment      1: Step Time =    1.000,"PART-1-1",           213,           -5.,       29.0625,            0.,NA,NA,"",       2.97010,      -2.95175,  -329.681E-03,   166.101E-09
C:/temp/dataset/test2/12_9.odb,Step-1,Increment      1: Step Time =    1.000,"PART-1-1",           214,           -4.,        28.125,            0.,NA,NA,"",       2.91694,      -2.90387,  -275.843E-03,   161.705E-09
C:/temp/dataset/test2/12_9.odb,Step-1,Increment      1: Step Time =    1.000,"PART-1-1",           215,            3.,       27.1875,            0.,NA,NA,"",       2.86580,      -2.86428,   93.2532E-03,   167.479E-09
C:/temp/dataset/test2/12_9.odb,Step-1,Increment      1: Step Time =    1.000,"PART-1-1",           216,            4.,         26.25,            0.,NA,NA,"",       2.82024,      -2.81640,   147.091E-03,   171.475E-09
C:/temp/dataset/test2/12_9.odb,Step-1,Increment      1: Step Time =    1.000,"PART-1-1",           217,            5.,       27.1875,            0.,NA,NA,"",       2.87390,      -2.86704,   198.339E-03,   173.631E-09
C:/temp/dataset/test2/12_9.odb,Step-1,Increment      1: Step Time =    1.000,"PART-1-1",           218,            1.,       27.1875,            0.,NA,NA,"",       2.86154,      -2.86152,  -11.8329E-03,   163.914E-09
C:/temp/dataset/test2/12_9.odb,Step-1,Increment      1: Step Time =    1.000,"PART-1-1",           219,            2.,         26.25,            0.,NA,NA,"",       2.81395,      -2.81364,   42.0051E-03,   166.282E-09
C:/temp/dataset/test2/12_9.odb,Step-1,Increment      1: Step Time =    1.000,"PART-1-1",           220,           -1.,       27.1875,            0.,NA,NA,"",       2.86115,      -2.85876,  -116.919E-03,   162.303E-09
C:/temp/dataset/test2/12_9.odb,Step-1,Increment      1: Step Time =    1.000,"PART-1-1",           221,            0.,         26.25,            0.,NA,NA,"",       2.81159,      -2.81088,  -63.0810E-03,   162.622E-09
C:/temp/dataset/test2/12_9.odb,Step-1,Increment      1: Step Time =    1.000,"PART-1-1",           222,           -3.,       27.1875,            0.,NA,NA,"",       2.86461,      -2.85599,  -222.005E-03,   160.872E-09
C:/temp/dataset/test2/12_9.odb,Step-1,Increment      1: Step Time =    1.000,"PART-1-1",           223,           -2.,         26.25,            0.,NA,NA,"",       2.81315,      -2.80812,  -168.167E-03,   159.769E-09
C:/temp/dataset/test2/12_9.odb,Step-1,Increment      1: Step Time =    1.000,"PART-1-1",           224,           -5.,       27.1875,            0.,NA,NA,"",       2.87192,      -2.85323,  -327.091E-03,   159.401E-09
C:/temp/dataset/test2/12_9.odb,Step-1,Increment      1: Step Time =    1.000,"PART-1-1",           225,           -4.,         26.25,            0.,NA,NA,"",       2.81863,      -2.80535,  -273.253E-03,   157.573E-09
C:/temp/dataset/test2/12_9.odb,Step-1,Increment      1: Step Time =    1.000,"PART-1-1",           226,            3.,       25.3125,            0.,NA,NA,"",       2.76742,      -2.76576,   95.8431E-03,   168.906E-09
C:/temp/dataset/test2/12_9.odb,Step-1,Increment      1: Step Time =    1.000,"PART-1-1",           227,            4.,        24.375,            0.,NA,NA,"",       2.72200,      -2.71788,   149.681E-03,   173.267E-09
C:/temp/dataset/test2/12_9.odb,Step-1,Increment      1: Step Time =    1.000,"PART-1-1",           228,            5.,       25.3125,            0.,NA,NA,"",       2.77581,      -2.76853,   200.929E-03,   176.092E-09
C:/temp/dataset/test2/12_9.odb,Step-1,Increment      1: Step Time =    1.000,"PART-1-1",           229,            1.,       25.3125,            0.,NA,NA,"",       2.76302,      -2.76300,  -9.24302E-03,   163.622E-09
C:/temp/dataset/test2/12_9.odb,Step-1,Increment      1: Step Time =    1.000,"PART-1-1",           230,            2.,        24.375,            0.,NA,NA,"",       2.71549,      -2.71512,   44.5950E-03,   166.115E-09
C:/temp/dataset/test2/12_9.odb,Step-1,Increment      1: Step Time =    1.000,"PART-1-1",           231,           -1.,       25.3125,            0.,NA,NA,"",       2.76260,      -2.76024,  -114.329E-03,   159.576E-09
C:/temp/dataset/test2/12_9.odb,Step-1,Increment      1: Step Time =    1.000,"PART-1-1",           232,            0.,        24.375,            0.,NA,NA,"",       2.71303,      -2.71236,  -60.4911E-03,   160.532E-09
C:/temp/dataset/test2/12_9.odb,Step-1,Increment      1: Step Time =    1.000,"PART-1-1",           233,           -3.,       25.3125,            0.,NA,NA,"",       2.76619,      -2.75748,  -219.415E-03,   156.431E-09
C:/temp/dataset/test2/12_9.odb,Step-1,Increment      1: Step Time =    1.000,"PART-1-1",           234,           -2.,        24.375,            0.,NA,NA,"",       2.71465,      -2.70960,  -165.577E-03,   156.101E-09
C:/temp/dataset/test2/12_9.odb,Step-1,Increment      1: Step Time =    1.000,"PART-1-1",           235,           -5.,       25.3125,            0.,NA,NA,"",       2.77376,      -2.75471,  -324.501E-03,   154.565E-09
C:/temp/dataset/test2/12_9.odb,Step-1,Increment      1: Step Time =    1.000,"PART-1-1",           236,           -4.,        24.375,            0.,NA,NA,"",       2.72033,      -2.70683,  -270.663E-03,   153.088E-09
C:/temp/dataset/test2/12_9.odb,Step-1,Increment      1: Step Time =    1.000,"PART-1-1",           237,            3.,       23.4375,            0.,NA,NA,"",       2.66906,      -2.66724,   98.4330E-03,   169.413E-09
C:/temp/dataset/test2/12_9.odb,Step-1,Increment      1: Step Time =    1.000,"PART-1-1",           238,            4.,          22.5,            0.,NA,NA,"",       2.62379,      -2.61937,   152.271E-03,   174.824E-09
C:/temp/dataset/test2/12_9.odb,Step-1,Increment      1: Step Time =    1.000,"PART-1-1",           239,            5.,       23.4375,            0.,NA,NA,"",       2.67775,      -2.67001,   203.519E-03,   179.004E-09
C:/temp/dataset/test2/12_9.odb,Step-1,Increment      1: Step Time =    1.000,"PART-1-1",           240,            1.,       23.4375,            0.,NA,NA,"",       2.66449,      -2.66448,  -6.65315E-03,   161.922E-09
C:/temp/dataset/test2/12_9.odb,Step-1,Increment      1: Step Time =    1.000,"PART-1-1",           241,            2.,          22.5,            0.,NA,NA,"",       2.61703,      -2.61660,   47.1848E-03,   164.986E-09
C:/temp/dataset/test2/12_9.odb,Step-1,Increment      1: Step Time =    1.000,"PART-1-1",           242,           -1.,       23.4375,            0.,NA,NA,"",       2.66406,      -2.66172,  -111.739E-03,   156.124E-09
C:/temp/dataset/test2/12_9.odb,Step-1,Increment      1: Step Time =    1.000,"PART-1-1",           243,            0.,          22.5,            0.,NA,NA,"",       2.61448,      -2.61384,  -57.9013E-03,   157.371E-09
C:/temp/dataset/test2/12_9.odb,Step-1,Increment      1: Step Time =    1.000,"PART-1-1",           244,           -3.,       23.4375,            0.,NA,NA,"",       2.66778,      -2.65896,  -216.825E-03,   151.880E-09
C:/temp/dataset/test2/12_9.odb,Step-1,Increment      1: Step Time =    1.000,"PART-1-1",           245,           -2.,          22.5,            0.,NA,NA,"",       2.61616,      -2.61108,  -162.987E-03,   151.707E-09
C:/temp/dataset/test2/12_9.odb,Step-1,Increment      1: Step Time =    1.000,"PART-1-1",           246,           -5.,       23.4375,            0.,NA,NA,"",       2.67563,      -2.65619,  -321.911E-03,   149.623E-09
C:/temp/dataset/test2/12_9.odb,Step-1,Increment      1: Step Time =    1.000,"PART-1-1",           247,           -4.,          22.5,            0.,NA,NA,"",       2.62206,      -2.60832,  -268.073E-03,   148.128E-09
C:/temp/dataset/test2/12_9.odb,Step-1,Increment      1: Step Time =    1.000,"PART-1-1",           248,            3.,       21.5625,            0.,NA,NA,"",       2.57071,      -2.56873,   101.023E-03,   168.999E-09
C:/temp/dataset/test2/12_9.odb,Step-1,Increment      1: Step Time =    1.000,"PART-1-1",           249,            4.,        20.625,            0.,NA,NA,"",       2.52560,      -2.52085,   154.861E-03,   175.926E-09
C:/temp/dataset/test2/12_9.odb,Step-1,Increment      1: Step Time =    1.000,"PART-1-1",           250,            5.,       21.5625,            0.,NA,NA,"",       2.57974,      -2.57149,   206.109E-03,   182.182E-09
C:/temp/dataset/test2/12_9.odb,Step-1,Increment      1: Step Time =    1.000,"PART-1-1",           251,            1.,       21.5625,            0.,NA,NA,"",       2.56597,      -2.56596,  -4.06328E-03,   158.942E-09
C:/temp/dataset/test2/12_9.odb,Step-1,Increment      1: Step Time =    1.000,"PART-1-1",           252,            2.,        20.625,            0.,NA,NA,"",       2.51858,      -2.51809,   49.7747E-03,   162.634E-09
C:/temp/dataset/test2/12_9.odb,Step-1,Increment      1: Step Time =    1.000,"PART-1-1",           253,           -1.,       21.5625,            0.,NA,NA,"",       2.56552,      -2.56320,  -109.149E-03,   151.520E-09
C:/temp/dataset/test2/12_9.odb,Step-1,Increment      1: Step Time =    1.000,"PART-1-1",           254,            0.,        20.625,            0.,NA,NA,"",       2.51593,      -2.51532,  -55.3114E-03,   152.826E-09
C:/temp/dataset/test2/12_9.odb,Step-1,Increment      1: Step Time =    1.000,"PART-1-1",           255,           -3.,       21.5625,            0.,NA,NA,"",       2.56939,      -2.56044,  -214.235E-03,   146.636E-09
C:/temp/dataset/test2/12_9.odb,Step-1,Increment      1: Step Time =    1.000,"PART-1-1",           256,           -2.,        20.625,            0.,NA,NA,"",       2.51768,      -2.51256,  -160.397E-03,   146.156E-09
C:/temp/dataset/test2/12_9.odb,Step-1,Increment      1: Step Time =    1.000,"PART-1-1",           257,           -5.,       21.5625,            0.,NA,NA,"",       2.57753,      -2.55768,  -319.322E-03,   144.409E-09
C:/temp/dataset/test2/12_9.odb,Step-1,Increment      1: Step Time =    1.000,"PART-1-1",           258,           -4.,        20.625,            0.,NA,NA,"",       2.52380,      -2.50980,  -265.484E-03,   142.608E-09
C:/temp/dataset/test2/12_9.odb,Step-1,Increment      1: Step Time =    1.000,"PART-1-1",           259,            3.,       19.6875,            0.,NA,NA,"",       2.47238,      -2.47021,   103.613E-03,   167.189E-09
C:/temp/dataset/test2/12_9.odb,Step-1,Increment      1: Step Time =    1.000,"PART-1-1",           260,            4.,         18.75,            0.,NA,NA,"",       2.42744,      -2.42233,   157.451E-03,   175.932E-09
C:/temp/dataset/test2/12_9.odb,Step-1,Increment      1: Step Time =    1.000,"PART-1-1",           261,            5.,       19.6875,            0.,NA,NA,"",       2.48176,      -2.47297,   208.699E-03,   185.153E-09
C:/temp/dataset/test2/12_9.odb,Step-1,Increment      1: Step Time =    1.000,"PART-1-1",           262,            1.,       19.6875,            0.,NA,NA,"",       2.46745,      -2.46745,  -1.47341E-03,   154.333E-09
C:/temp/dataset/test2/12_9.odb,Step-1,Increment      1: Step Time =    1.000,"PART-1-1",           263,            2.,         18.75,            0.,NA,NA,"",       2.42013,      -2.41957,   52.3645E-03,   158.598E-09
C:/temp/dataset/test2/12_9.odb,Step-1,Increment      1: Step Time =    1.000,"PART-1-1",           264,           -1.,       19.6875,            0.,NA,NA,"",       2.46699,      -2.46468,  -106.559E-03,   145.301E-09
C:/temp/dataset/test2/12_9.odb,Step-1,Increment      1: Step Time =    1.000,"PART-1-1",           265,            0.,         18.75,            0.,NA,NA,"",       2.41738,      -2.41681,  -52.7215E-03,   146.409E-09
C:/temp/dataset/test2/12_9.odb,Step-1,Increment      1: Step Time =    1.000,"PART-1-1",           266,           -3.,       19.6875,            0.,NA,NA,"",       2.47100,      -2.46192,  -211.646E-03,   140.203E-09
C:/temp/dataset/test2/12_9.odb,Step-1,Increment      1: Step Time =    1.000,"PART-1-1",           267,           -2.,         18.75,            0.,NA,NA,"",       2.41919,      -2.41404,  -157.808E-03,   138.820E-09
C:/temp/dataset/test2/12_9.odb,Step-1,Increment      1: Step Time =    1.000,"PART-1-1",           268,           -5.,       19.6875,            0.,NA,NA,"",       2.47947,      -2.45916,  -316.732E-03,   138.940E-09
C:/temp/dataset/test2/12_9.odb,Step-1,Increment      1: Step Time =    1.000,"PART-1-1",           269,           -4.,         18.75,            0.,NA,NA,"",       2.42557,      -2.41128,  -262.894E-03,   136.157E-09
C:/temp/dataset/test2/12_9.odb,Step-1,Increment      1: Step Time =    1.000,"PART-1-1",           270,            3.,       17.8125,            0.,NA,NA,"",       2.37407,      -2.37169,   106.202E-03,   163.113E-09
C:/temp/dataset/test2/12_9.odb,Step-1,Increment      1: Step Time =    1.000,"PART-1-1",           271,            4.,        16.875,            0.,NA,NA,"",       2.32932,      -2.32381,   160.040E-03,   172.892E-09
C:/temp/dataset/test2/12_9.odb,Step-1,Increment      1: Step Time =    1.000,"PART-1-1",           272,            5.,       17.8125,            0.,NA,NA,"",       2.38383,      -2.37445,   211.288E-03,   186.141E-09
C:/temp/dataset/test2/12_9.odb,Step-1,Increment      1: Step Time =    1.000,"PART-1-1",           273,            1.,       17.8125,            0.,NA,NA,"",       2.36893,      -2.36893,   1.11645E-03,   148.323E-09
C:/temp/dataset/test2/12_9.odb,Step-1,Increment      1: Step Time =    1.000,"PART-1-1",           274,            2.,        16.875,            0.,NA,NA,"",       2.32170,      -2.32105,   54.9544E-03,   153.144E-09
C:/temp/dataset/test2/12_9.odb,Step-1,Increment      1: Step Time =    1.000,"PART-1-1",           275,           -1.,       17.8125,            0.,NA,NA,"",       2.36845,      -2.36616,  -103.970E-03,   137.351E-09
C:/temp/dataset/test2/12_9.odb,Step-1,Increment      1: Step Time =    1.000,"PART-1-1",           276,            0.,        16.875,            0.,NA,NA,"",       2.31883,      -2.31829,  -50.1316E-03,   138.848E-09
C:/temp/dataset/test2/12_9.odb,Step-1,Increment      1: Step Time =    1.000,"PART-1-1",           277,           -3.,       17.8125,            0.,NA,NA,"",       2.37263,      -2.36340,  -209.056E-03,   132.066E-09
C:/temp/dataset/test2/12_9.odb,Step-1,Increment      1: Step Time =    1.000,"PART-1-1",           278,           -2.,        16.875,            0.,NA,NA,"",       2.32072,      -2.31552,  -155.218E-03,   129.443E-09
C:/temp/dataset/test2/12_9.odb,Step-1,Increment      1: Step Time =    1.000,"PART-1-1",           279,           -5.,       17.8125,            0.,NA,NA,"",       2.38145,      -2.36064,  -314.142E-03,   132.912E-09
C:/temp/dataset/test2/12_9.odb,Step-1,Increment      1: Step Time =    1.000,"PART-1-1",           280,           -4.,        16.875,            0.,NA,NA,"",       2.32736,      -2.31276,  -260.304E-03,   128.100E-09
C:/temp/dataset/test2/12_9.odb,Step-1,Increment      1: Step Time =    1.000,"PART-1-1",           281,            3.,       15.9375,            0.,NA,NA,"",       2.27577,      -2.27317,   108.792E-03,   157.572E-09
C:/temp/dataset/test2/12_9.odb,Step-1,Increment      1: Step Time =    1.000,"PART-1-1",           282,            4.,           15.,            0.,NA,NA,"",       2.23123,      -2.22529,   162.630E-03,   163.090E-09
C:/temp/dataset/test2/12_9.odb,Step-1,Increment      1: Step Time =    1.000,"PART-1-1",           283,            5.,       15.9375,            0.,NA,NA,"",       2.28596,      -2.27593,   213.878E-03,   179.274E-09
C:/temp/dataset/test2/12_9.odb,Step-1,Increment      1: Step Time =    1.000,"PART-1-1",           284,            1.,       15.9375,            0.,NA,NA,"",       2.27041,      -2.27041,   3.70630E-03,   146.652E-09
C:/temp/dataset/test2/12_9.odb,Step-1,Increment      1: Step Time =    1.000,"PART-1-1",           285,            2.,           15.,            0.,NA,NA,"",       2.22328,      -2.22253,   57.5442E-03,   153.414E-09
C:/temp/dataset/test2/12_9.odb,Step-1,Increment      1: Step Time =    1.000,"PART-1-1",           286,           -1.,       15.9375,            0.,NA,NA,"",       2.26991,      -2.26765,  -101.380E-03,   132.757E-09
C:/temp/dataset/test2/12_9.odb,Step-1,Increment      1: Step Time =    1.000,"PART-1-1",           287,            0.,           15.,            0.,NA,NA,"",       2.22028,      -2.21977,  -47.5418E-03,   140.408E-09
C:/temp/dataset/test2/12_9.odb,Step-1,Increment      1: Step Time =    1.000,"PART-1-1",           288,           -3.,       15.9375,            0.,NA,NA,"",       2.27428,      -2.26488,  -206.466E-03,   124.606E-09
C:/temp/dataset/test2/12_9.odb,Step-1,Increment      1: Step Time =    1.000,"PART-1-1",           289,           -2.,           15.,            0.,NA,NA,"",       2.22225,      -2.21701,  -152.628E-03,   124.858E-09
C:/temp/dataset/test2/12_9.odb,Step-1,Increment      1: Step Time =    1.000,"PART-1-1",           290,           -5.,       15.9375,            0.,NA,NA,"",       2.28347,      -2.26212,  -311.552E-03,   126.846E-09
C:/temp/dataset/test2/12_9.odb,Step-1,Increment      1: Step Time =    1.000,"PART-1-1",           291,           -4.,           15.,            0.,NA,NA,"",       2.22919,      -2.21424,  -257.714E-03,   120.405E-09
C:/temp/dataset/test2/12_9.odb,Step-1,Increment      1: Step Time =    1.000,"PART-1-1",           292,            3.,       14.0625,            0.,NA,NA,"",       2.17750,      -2.17465,   111.382E-03,   165.810E-09
C:/temp/dataset/test2/12_9.odb,Step-1,Increment      1: Step Time =    1.000,"PART-1-1",           293,            4.,        13.125,            0.,NA,NA,"",       2.13318,      -2.12678,   165.220E-03,   149.510E-09
C:/temp/dataset/test2/12_9.odb,Step-1,Increment      1: Step Time =    1.000,"PART-1-1",           294,            5.,       14.0625,            0.,NA,NA,"",       2.18815,      -2.17742,   216.468E-03,   152.724E-09
C:/temp/dataset/test2/12_9.odb,Step-1,Increment      1: Step Time =    1.000,"PART-1-1",           295,            1.,       14.0625,            0.,NA,NA,"",       2.17190,      -2.17189,   6.29608E-03,   176.936E-09
C:/temp/dataset/test2/12_9.odb,Step-1,Increment      1: Step Time =    1.000,"PART-1-1",           296,            2.,        13.125,            0.,NA,NA,"",       2.12486,      -2.12401,   60.1340E-03,   191.348E-09
C:/temp/dataset/test2/12_9.odb,Step-1,Increment      1: Step Time =    1.000,"PART-1-1",           297,           -1.,       14.0625,            0.,NA,NA,"",       2.17138,      -2.16913,  -98.7898E-03,   159.893E-09
C:/temp/dataset/test2/12_9.odb,Step-1,Increment      1: Step Time =    1.000,"PART-1-1",           298,            0.,        13.125,            0.,NA,NA,"",       2.12173,      -2.12125,  -44.9520E-03,   190.318E-09
C:/temp/dataset/test2/12_9.odb,Step-1,Increment      1: Step Time =    1.000,"PART-1-1",           299,           -3.,       14.0625,            0.,NA,NA,"",       2.17594,      -2.16637,  -203.876E-03,   139.292E-09
C:/temp/dataset/test2/12_9.odb,Step-1,Increment      1: Step Time =    1.000,"PART-1-1",           300,           -2.,        13.125,            0.,NA,NA,"",       2.12379,      -2.11849,  -150.038E-03,   161.019E-09
C:/temp/dataset/test2/12_9.odb,Step-1,Increment      1: Step Time =    1.000,"PART-1-1",           301,           -5.,       14.0625,            0.,NA,NA,"",       2.18555,      -2.16360,  -308.962E-03,   133.606E-09
C:/temp/dataset/test2/12_9.odb,Step-1,Increment      1: Step Time =    1.000,"PART-1-1",           302,           -4.,        13.125,            0.,NA,NA,"",       2.13105,      -2.11573,  -255.124E-03,   135.994E-09
C:/temp/dataset/test2/12_9.odb,Step-1,Increment      1: Step Time =    1.000,"PART-1-1",           303,            3.,       12.1875,            0.,NA,NA,"",       2.07926,      -2.07614,   113.972E-03,   238.980E-09
C:/temp/dataset/test2/12_9.odb,Step-1,Increment      1: Step Time =    1.000,"PART-1-1",           304,            4.,         11.25,            0.,NA,NA,"",       2.03519,      -2.02826,   167.810E-03,   190.122E-09
C:/temp/dataset/test2/12_9.odb,Step-1,Increment      1: Step Time =    1.000,"PART-1-1",           305,            5.,       12.1875,            0.,NA,NA,"",       2.09041,      -2.07890,   219.058E-03,   127.721E-09
C:/temp/dataset/test2/12_9.odb,Step-1,Increment      1: Step Time =    1.000,"PART-1-1",           306,            1.,       12.1875,            0.,NA,NA,"",       2.07339,      -2.07337,   8.88575E-03,   286.611E-09
C:/temp/dataset/test2/12_9.odb,Step-1,Increment      1: Step Time =    1.000,"PART-1-1",           307,            2.,         11.25,            0.,NA,NA,"",       2.02647,      -2.02550,   62.7236E-03,   312.722E-09
C:/temp/dataset/test2/12_9.odb,Step-1,Increment      1: Step Time =    1.000,"PART-1-1",           308,           -1.,       12.1875,            0.,NA,NA,"",       2.07284,      -2.07061,  -96.2001E-03,   268.006E-09
C:/temp/dataset/test2/12_9.odb,Step-1,Increment      1: Step Time =    1.000,"PART-1-1",           309,            0.,         11.25,            0.,NA,NA,"",       2.02318,      -2.02273,  -42.3625E-03,   331.106E-09
C:/temp/dataset/test2/12_9.odb,Step-1,Increment      1: Step Time =    1.000,"PART-1-1",           310,           -3.,       12.1875,            0.,NA,NA,"",       2.07762,      -2.06785,  -201.286E-03,   228.598E-09
C:/temp/dataset/test2/12_9.odb,Step-1,Increment      1: Step Time =    1.000,"PART-1-1",           311,           -2.,         11.25,            0.,NA,NA,"",       2.02534,      -2.01997,  -147.448E-03,   284.338E-09
C:/temp/dataset/test2/12_9.odb,Step-1,Increment      1: Step Time =    1.000,"PART-1-1",           312,           -5.,       12.1875,            0.,NA,NA,"",       2.08769,      -2.06509,  -306.371E-03,   216.521E-09
C:/temp/dataset/test2/12_9.odb,Step-1,Increment      1: Step Time =    1.000,"PART-1-1",           313,           -4.,         11.25,            0.,NA,NA,"",       2.03295,      -2.01721,  -252.533E-03,   238.027E-09
C:/temp/dataset/test2/12_9.odb,Step-1,Increment      1: Step Time =    1.000,"PART-1-1",           314,            3.,       10.3125,            0.,NA,NA,"",       1.98105,      -1.97762,   116.562E-03,   410.224E-09
C:/temp/dataset/test2/12_9.odb,Step-1,Increment      1: Step Time =    1.000,"PART-1-1",           315,            4.,         9.375,            0.,NA,NA,"",       1.93725,      -1.92974,   170.400E-03,   377.284E-09
C:/temp/dataset/test2/12_9.odb,Step-1,Increment      1: Step Time =    1.000,"PART-1-1",           316,            5.,       10.3125,            0.,NA,NA,"",       1.99275,      -1.98038,   221.648E-03,   313.118E-09
C:/temp/dataset/test2/12_9.odb,Step-1,Increment      1: Step Time =    1.000,"PART-1-1",           317,            1.,       10.3125,            0.,NA,NA,"",       1.97489,      -1.97486,   11.4752E-03,   480.954E-09
C:/temp/dataset/test2/12_9.odb,Step-1,Increment      1: Step Time =    1.000,"PART-1-1",           318,            2.,         9.375,            0.,NA,NA,"",       1.92808,      -1.92698,   65.3132E-03,   504.340E-09
C:/temp/dataset/test2/12_9.odb,Step-1,Increment      1: Step Time =    1.000,"PART-1-1",           319,           -1.,       10.3125,            0.,NA,NA,"",       1.97431,      -1.97209,  -93.6106E-03,   459.833E-09
C:/temp/dataset/test2/12_9.odb,Step-1,Increment      1: Step Time =    1.000,"PART-1-1",           320,            0.,         9.375,            0.,NA,NA,"",       1.92463,      -1.92421,  -39.7732E-03,   542.941E-09
C:/temp/dataset/test2/12_9.odb,Step-1,Increment      1: Step Time =    1.000,"PART-1-1",           321,           -3.,       10.3125,            0.,NA,NA,"",       1.97933,      -1.96933,  -198.696E-03,   410.168E-09
C:/temp/dataset/test2/12_9.odb,Step-1,Increment      1: Step Time =    1.000,"PART-1-1",           322,           -2.,         9.375,            0.,NA,NA,"",       1.92690,      -1.92145,  -144.858E-03,   474.423E-09
C:/temp/dataset/test2/12_9.odb,Step-1,Increment      1: Step Time =    1.000,"PART-1-1",           323,           -5.,       10.3125,            0.,NA,NA,"",       1.98989,      -1.96657,  -303.781E-03,   469.152E-09
C:/temp/dataset/test2/12_9.odb,Step-1,Increment      1: Step Time =    1.000,"PART-1-1",           324,           -4.,         9.375,            0.,NA,NA,"",       1.93490,      -1.91869,  -249.943E-03,   467.044E-09
C:/temp/dataset/test2/12_9.odb,Step-1,Increment      1: Step Time =    1.000,"PART-1-1",           325,            3.,        8.4375,            0.,NA,NA,"",       1.88287,      -1.87910,   119.152E-03,   599.007E-09
C:/temp/dataset/test2/12_9.odb,Step-1,Increment      1: Step Time =    1.000,"PART-1-1",           326,            4.,           7.5,            0.,NA,NA,"",       1.83938,      -1.83122,   172.991E-03,   677.279E-09
C:/temp/dataset/test2/12_9.odb,Step-1,Increment      1: Step Time =    1.000,"PART-1-1",           327,            5.,        8.4375,            0.,NA,NA,"",       1.89518,      -1.88186,   224.239E-03,   781.637E-09
C:/temp/dataset/test2/12_9.odb,Step-1,Increment      1: Step Time =    1.000,"PART-1-1",           328,            1.,        8.4375,            0.,NA,NA,"",       1.87639,      -1.87634,   14.0643E-03,   665.942E-09
C:/temp/dataset/test2/12_9.odb,Step-1,Increment      1: Step Time =    1.000,"PART-1-1",           329,            2.,           7.5,            0.,NA,NA,"",       1.82972,      -1.82846,   67.9025E-03,   624.667E-09
C:/temp/dataset/test2/12_9.odb,Step-1,Increment      1: Step Time =    1.000,"PART-1-1",           330,           -1.,        8.4375,            0.,NA,NA,"",       1.87578,      -1.87357,  -91.0214E-03,   639.373E-09
C:/temp/dataset/test2/12_9.odb,Step-1,Increment      1: Step Time =    1.000,"PART-1-1",           331,            0.,           7.5,            0.,NA,NA,"",       1.82608,      -1.82570,  -37.1843E-03,   701.754E-09
C:/temp/dataset/test2/12_9.odb,Step-1,Increment      1: Step Time =    1.000,"PART-1-1",           332,           -3.,        8.4375,            0.,NA,NA,"",       1.88106,      -1.87081,  -196.106E-03,   599.625E-09
C:/temp/dataset/test2/12_9.odb,Step-1,Increment      1: Step Time =    1.000,"PART-1-1",           333,           -2.,           7.5,            0.,NA,NA,"",       1.82848,      -1.82293,  -142.269E-03,   586.622E-09
C:/temp/dataset/test2/12_9.odb,Step-1,Increment      1: Step Time =    1.000,"PART-1-1",           334,           -5.,        8.4375,            0.,NA,NA,"",       1.89217,      -1.86805,  -301.190E-03,   958.062E-09
C:/temp/dataset/test2/12_9.odb,Step-1,Increment      1: Step Time =    1.000,"PART-1-1",           335,           -4.,           7.5,            0.,NA,NA,"",       1.83690,      -1.82017,  -247.352E-03,   794.644E-09
C:/temp/dataset/test2/12_9.odb,Step-1,Increment      1: Step Time =    1.000,"PART-1-1",           336,            3.,        6.5625,            0.,NA,NA,"",       1.78474,      -1.78058,   121.742E-03,   506.541E-09
C:/temp/dataset/test2/12_9.odb,Step-1,Increment      1: Step Time =    1.000,"PART-1-1",           337,            4.,         5.625,            0.,NA,NA,"",       1.74158,      -1.73270,   175.582E-03,   887.979E-09
C:/temp/dataset/test2/12_9.odb,Step-1,Increment      1: Step Time =    1.000,"PART-1-1",           338,            5.,        6.5625,            0.,NA,NA,"",       1.79771,      -1.78334,   226.831E-03,   1.45606E-06
C:/temp/dataset/test2/12_9.odb,Step-1,Increment      1: Step Time =    1.000,"PART-1-1",           339,            1.,        6.5625,            0.,NA,NA,"",       1.77790,      -1.77782,   16.6534E-03,   760.546E-09
C:/temp/dataset/test2/12_9.odb,Step-1,Increment      1: Step Time =    1.000,"PART-1-1",           340,            2.,         5.625,            0.,NA,NA,"",       1.73138,      -1.72994,   70.4919E-03,   724.444E-09
C:/temp/dataset/test2/12_9.odb,Step-1,Increment      1: Step Time =    1.000,"PART-1-1",           341,           -1.,        6.5625,            0.,NA,NA,"",       1.77726,      -1.77506,  -88.4323E-03,   733.808E-09
C:/temp/dataset/test2/12_9.odb,Step-1,Increment      1: Step Time =    1.000,"PART-1-1",           342,            0.,         5.625,            0.,NA,NA,"",       1.72753,      -1.72718,  -34.5951E-03,   1.05651E-06
C:/temp/dataset/test2/12_9.odb,Step-1,Increment      1: Step Time =    1.000,"PART-1-1",           343,           -3.,        6.5625,            0.,NA,NA,"",       1.78283,      -1.77229,  -193.516E-03,   490.980E-09
C:/temp/dataset/test2/12_9.odb,Step-1,Increment      1: Step Time =    1.000,"PART-1-1",           344,           -2.,         5.625,            0.,NA,NA,"",       1.73007,      -1.72442,  -139.680E-03,   699.260E-09
C:/temp/dataset/test2/12_9.odb,Step-1,Increment      1: Step Time =    1.000,"PART-1-1",           345,           -5.,        6.5625,            0.,NA,NA,"",       1.79455,      -1.76953,  -298.598E-03,   1.64096E-06
C:/temp/dataset/test2/12_9.odb,Step-1,Increment      1: Step Time =    1.000,"PART-1-1",           346,           -4.,         5.625,            0.,NA,NA,"",       1.73897,      -1.72166,  -244.761E-03,   1.03369E-06
C:/temp/dataset/test2/12_9.odb,Step-1,Increment      1: Step Time =    1.000,"PART-1-1",           347,            3.,        4.6875,            0.,NA,NA,"",       1.68665,      -1.68206,   124.332E-03,   1.42705E-06
C:/temp/dataset/test2/12_9.odb,Step-1,Increment      1: Step Time =    1.000,"PART-1-1",           348,            4.,          3.75,            0.,NA,NA,"",       1.64386,      -1.63418,   178.173E-03,   1.27935E-06
C:/temp/dataset/test2/12_9.odb,Step-1,Increment      1: Step Time =    1.000,"PART-1-1",           349,            5.,        4.6875,            0.,NA,NA,"",       1.70037,      -1.68482,   229.424E-03,   1.82572E-06
C:/temp/dataset/test2/12_9.odb,Step-1,Increment      1: Step Time =    1.000,"PART-1-1",           350,            1.,        4.6875,            0.,NA,NA,"",       1.67941,      -1.67930,   19.2433E-03,   2.68756E-06
C:/temp/dataset/test2/12_9.odb,Step-1,Increment      1: Step Time =    1.000,"PART-1-1",           351,            2.,          3.75,            0.,NA,NA,"",       1.63305,      -1.63142,   73.0826E-03,   3.50495E-06
C:/temp/dataset/test2/12_9.odb,Step-1,Increment      1: Step Time =    1.000,"PART-1-1",           352,           -1.,        4.6875,            0.,NA,NA,"",       1.67874,      -1.67654,  -85.8425E-03,   2.69350E-06
C:/temp/dataset/test2/12_9.odb,Step-1,Increment      1: Step Time =    1.000,"PART-1-1",           353,            0.,          3.75,            0.,NA,NA,"",       1.62898,      -1.62866,  -32.0034E-03,   4.26783E-06
C:/temp/dataset/test2/12_9.odb,Step-1,Increment      1: Step Time =    1.000,"PART-1-1",           354,           -3.,        4.6875,            0.,NA,NA,"",       1.68463,      -1.67378,  -190.926E-03,   1.41227E-06
C:/temp/dataset/test2/12_9.odb,Step-1,Increment      1: Step Time =    1.000,"PART-1-1",           355,           -2.,          3.75,            0.,NA,NA,"",       1.63168,      -1.62591,  -137.089E-03,   3.52926E-06
C:/temp/dataset/test2/12_9.odb,Step-1,Increment      1: Step Time =    1.000,"PART-1-1",           356,           -5.,        4.6875,            0.,NA,NA,"",       1.69703,      -1.67102,  -296.004E-03,   2.00399E-06
C:/temp/dataset/test2/12_9.odb,Step-1,Increment      1: Step Time =    1.000,"PART-1-1",           357,           -4.,          3.75,            0.,NA,NA,"",       1.64111,      -1.62315,  -242.170E-03,   1.38772E-06
C:/temp/dataset/test2/12_9.odb,Step-1,Increment      1: Step Time =    1.000,"PART-1-1",           358,            3.,        2.8125,            0.,NA,NA,"",       1.58861,      -1.58353,   126.922E-03,   7.12868E-06
C:/temp/dataset/test2/12_9.odb,Step-1,Increment      1: Step Time =    1.000,"PART-1-1",           359,            4.,         1.875,            0.,NA,NA,"",       1.54624,      -1.53564,   180.762E-03,   5.87837E-06
C:/temp/dataset/test2/12_9.odb,Step-1,Increment      1: Step Time =    1.000,"PART-1-1",           360,            5.,        2.8125,            0.,NA,NA,"",       1.60317,      -1.58629,   232.019E-03,   317.090E-09
C:/temp/dataset/test2/12_9.odb,Step-1,Increment      1: Step Time =    1.000,"PART-1-1",           361,            1.,        2.8125,            0.,NA,NA,"",       1.58093,      -1.58078,   21.8376E-03,   9.90524E-06
C:/temp/dataset/test2/12_9.odb,Step-1,Increment      1: Step Time =    1.000,"PART-1-1",           362,            2.,         1.875,            0.,NA,NA,"",       1.53475,      -1.53288,   75.6777E-03,   12.3708E-06
C:/temp/dataset/test2/12_9.odb,Step-1,Increment      1: Step Time =    1.000,"PART-1-1",           363,           -1.,        2.8125,            0.,NA,NA,"",       1.58022,      -1.57803,  -83.2487E-03,   9.89505E-06
C:/temp/dataset/test2/12_9.odb,Step-1,Increment      1: Step Time =    1.000,"PART-1-1",           364,            0.,         1.875,            0.,NA,NA,"",       1.53043,      -1.53014,  -29.4029E-03,   14.0856E-06
C:/temp/dataset/test2/12_9.odb,Step-1,Increment      1: Step Time =    1.000,"PART-1-1",           365,           -3.,        2.8125,            0.,NA,NA,"",       1.58649,      -1.57528,  -188.336E-03,   7.09129E-06
C:/temp/dataset/test2/12_9.odb,Step-1,Increment      1: Step Time =    1.000,"PART-1-1",           366,           -2.,         1.875,            0.,NA,NA,"",       1.53331,      -1.52740,  -134.496E-03,   12.3751E-06
C:/temp/dataset/test2/12_9.odb,Step-1,Increment      1: Step Time =    1.000,"PART-1-1",           367,           -5.,        2.8125,            0.,NA,NA,"",       1.59965,      -1.57251,  -293.411E-03,   380.321E-09
C:/temp/dataset/test2/12_9.odb,Step-1,Increment      1: Step Time =    1.000,"PART-1-1",           368,           -4.,         1.875,            0.,NA,NA,"",       1.54336,      -1.52465,  -239.583E-03,   5.83964E-06
C:/temp/dataset/test2/12_9.odb,Step-1,Increment      1: Step Time =    1.000,"PART-1-1",           369,            3.,     937.5E-03,            0.,NA,NA,"",       1.49062,      -1.48498,   129.513E-03,   22.2505E-06
C:/temp/dataset/test2/12_9.odb,Step-1,Increment      1: Step Time =    1.000,"PART-1-1",           370,            4.,            0.,            0.,NA,NA,"",       1.44873,      -1.43708,   183.342E-03,   20.1519E-06
C:/temp/dataset/test2/12_9.odb,Step-1,Increment      1: Step Time =    1.000,"PART-1-1",           371,            5.,     937.5E-03,            0.,NA,NA,"",       1.50613,      -1.48775,   234.608E-03,   9.26519E-06
C:/temp/dataset/test2/12_9.odb,Step-1,Increment      1: Step Time =    1.000,"PART-1-1",           372,            1.,     937.5E-03,            0.,NA,NA,"",       1.48245,      -1.48225,   24.4450E-03,   27.8111E-06
C:/temp/dataset/test2/12_9.odb,Step-1,Increment      1: Step Time =    1.000,"PART-1-1",           373,            2.,            0.,            0.,NA,NA,"",       1.43647,      -1.43433,   78.2850E-03,   33.4706E-06
C:/temp/dataset/test2/12_9.odb,Step-1,Increment      1: Step Time =    1.000,"PART-1-1",           374,           -1.,     937.5E-03,            0.,NA,NA,"",       1.48172,      -1.47953,  -80.6427E-03,   27.6220E-06
C:/temp/dataset/test2/12_9.odb,Step-1,Increment      1: Step Time =    1.000,"PART-1-1",           375,            0.,            0.,            0.,NA,NA,"",       1.43188,      -1.43163,  -26.7788E-03,   36.9266E-06
C:/temp/dataset/test2/12_9.odb,Step-1,Increment      1: Step Time =    1.000,"PART-1-1",           376,           -3.,     937.5E-03,            0.,NA,NA,"",       1.48842,      -1.47679,  -185.748E-03,   21.9171E-06
C:/temp/dataset/test2/12_9.odb,Step-1,Increment      1: Step Time =    1.000,"PART-1-1",           377,           -2.,            0.,            0.,NA,NA,"",       1.43499,      -1.42892,  -131.892E-03,   33.0575E-06
C:/temp/dataset/test2/12_9.odb,Step-1,Increment      1: Step Time =    1.000,"PART-1-1",           378,           -5.,     937.5E-03,            0.,NA,NA,"",       1.50244,      -1.47402,  -290.824E-03,   9.03944E-06
C:/temp/dataset/test2/12_9.odb,Step-1,Increment      1: Step Time =    1.000,"PART-1-1",           379,           -4.,            0.,            0.,NA,NA,"",       1.44573,      -1.42617,  -237.007E-03,   19.8560E-06
C:/temp/dataset/test2/12_9.odb,Step-1,Increment      1: Step Time =    1.000,"PART-1-1",           380,            3.,    -937.5E-03,            0.,NA,NA,"",       1.39269,      -1.38641,   132.104E-03,   55.8545E-06
C:/temp/dataset/test2/12_9.odb,Step-1,Increment      1: Step Time =    1.000,"PART-1-1",           381,            4.,        -1.875,            0.,NA,NA,"",       1.35134,      -1.33849,   185.894E-03,   54.6490E-06
C:/temp/dataset/test2/12_9.odb,Step-1,Increment      1: Step Time =    1.000,"PART-1-1",           382,            5.,    -937.5E-03,            0.,NA,NA,"",       1.40928,      -1.38918,   237.175E-03,   37.5360E-06
C:/temp/dataset/test2/12_9.odb,Step-1,Increment      1: Step Time =    1.000,"PART-1-1",           383,            1.,    -937.5E-03,            0.,NA,NA,"",       1.38397,      -1.38371,   27.0843E-03,   64.8404E-06
C:/temp/dataset/test2/12_9.odb,Step-1,Increment      1: Step Time =    1.000,"PART-1-1",           384,            2.,        -1.875,            0.,NA,NA,"",       1.33821,      -1.33576,   80.9197E-03,   75.2305E-06
C:/temp/dataset/test2/12_9.odb,Step-1,Increment      1: Step Time =    1.000,"PART-1-1",           385,           -1.,    -937.5E-03,            0.,NA,NA,"",       1.38324,      -1.38104,  -78.0073E-03,   63.6160E-06
C:/temp/dataset/test2/12_9.odb,Step-1,Increment      1: Step Time =    1.000,"PART-1-1",           386,            0.,        -1.875,            0.,NA,NA,"",       1.33334,      -1.33312,  -24.1036E-03,   81.1077E-06
C:/temp/dataset/test2/12_9.odb,Step-1,Increment      1: Step Time =    1.000,"PART-1-1",           387,           -3.,    -937.5E-03,            0.,NA,NA,"",       1.39044,      -1.37832,  -183.163E-03,   53.3776E-06
C:/temp/dataset/test2/12_9.odb,Step-1,Increment      1: Step Time =    1.000,"PART-1-1",           388,           -2.,        -1.875,            0.,NA,NA,"",       1.33673,      -1.33046,  -129.267E-03,   72.8485E-06
C:/temp/dataset/test2/12_9.odb,Step-1,Increment      1: Step Time =    1.000,"PART-1-1",           389,           -5.,    -937.5E-03,            0.,NA,NA,"",       1.40543,      -1.37555,  -288.263E-03,   36.4385E-06
C:/temp/dataset/test2/12_9.odb,Step-1,Increment      1: Step Time =    1.000,"PART-1-1",           390,           -4.,        -1.875,            0.,NA,NA,"",       1.34826,      -1.32772,  -234.461E-03,   52.4323E-06
C:/temp/dataset/test2/12_9.odb,Step-1,Increment      1: Step Time =    1.000,"PART-1-1",           391,            3.,       -2.8125,            0.,NA,NA,"",       1.29483,      -1.28780,   134.695E-03,   116.985E-06
C:/temp/dataset/test2/12_9.odb,Step-1,Increment      1: Step Time =    1.000,"PART-1-1",           392,            4.,         -3.75,            0.,NA,NA,"",       1.25411,      -1.23988,   188.384E-03,   124.953E-06
C:/temp/dataset/test2/12_9.odb,Step-1,Increment      1: Step Time =    1.000,"PART-1-1",           393,            5.,       -2.8125,            0.,NA,NA,"",       1.31266,      -1.29060,   239.669E-03,   109.830E-06
C:/temp/dataset/test2/12_9.odb,Step-1,Increment      1: Step Time =    1.000,"PART-1-1",           394,            1.,       -2.8125,            0.,NA,NA,"",       1.28551,      -1.28516,   29.7882E-03,   127.417E-06
C:/temp/dataset/test2/12_9.odb,Step-1,Increment      1: Step Time =    1.000,"PART-1-1",           395,            2.,         -3.75,            0.,NA,NA,"",       1.24000,      -1.23718,   83.6093E-03,   143.624E-06
C:/temp/dataset/test2/12_9.odb,Step-1,Increment      1: Step Time =    1.000,"PART-1-1",           396,           -1.,       -2.8125,            0.,NA,NA,"",       1.28478,      -1.28257,  -75.3141E-03,   122.230E-06
C:/temp/dataset/test2/12_9.odb,Step-1,Increment      1: Step Time =    1.000,"PART-1-1",           397,            0.,         -3.75,            0.,NA,NA,"",       1.23481,      -1.23462,  -21.3367E-03,   148.959E-06
C:/temp/dataset/test2/12_9.odb,Step-1,Increment      1: Step Time =    1.000,"PART-1-1",           398,           -3.,       -2.8125,            0.,NA,NA,"",       1.29257,      -1.27989,  -180.585E-03,   107.005E-06
C:/temp/dataset/test2/12_9.odb,Step-1,Increment      1: Step Time =    1.000,"PART-1-1",           399,           -2.,         -3.75,            0.,NA,NA,"",       1.23851,      -1.23203,  -126.603E-03,   132.030E-06
C:/temp/dataset/test2/12_9.odb,Step-1,Increment      1: Step Time =    1.000,"PART-1-1",           400,           -5.,       -2.8125,            0.,NA,NA,"",       1.30867,      -1.27708,  -285.770E-03,   100.951E-06
C:/temp/dataset/test2/12_9.odb,Step-1,Increment      1: Step Time =    1.000,"PART-1-1",           401,           -4.,         -3.75,            0.,NA,NA,"",       1.25097,      -1.22927,  -231.978E-03,   114.379E-06
C:/temp/dataset/test2/12_9.odb,Step-1,Increment      1: Step Time =    1.000,"PART-1-1",           402,            3.,       -4.6875,            0.,NA,NA,"",       1.19711,      -1.18921,   137.292E-03,   209.145E-06
C:/temp/dataset/test2/12_9.odb,Step-1,Increment      1: Step Time =    1.000,"PART-1-1",           403,            4.,        -5.625,            0.,NA,NA,"",       1.15717,      -1.14135,   190.734E-03,   243.951E-06
C:/temp/dataset/test2/12_9.odb,Step-1,Increment      1: Step Time =    1.000,"PART-1-1",           404,            5.,       -4.6875,            0.,NA,NA,"",       1.21636,      -1.19205,   241.993E-03,   259.949E-06
C:/temp/dataset/test2/12_9.odb,Step-1,Increment      1: Step Time =    1.000,"PART-1-1",           405,            1.,       -4.6875,            0.,NA,NA,"",       1.18709,      -1.18664,   32.6003E-03,   202.713E-06
C:/temp/dataset/test2/12_9.odb,Step-1,Increment      1: Step Time =    1.000,"PART-1-1",           406,            2.,        -5.625,            0.,NA,NA,"",       1.14195,      -1.13867,   86.3892E-03,   212.943E-06
C:/temp/dataset/test2/12_9.odb,Step-1,Increment      1: Step Time =    1.000,"PART-1-1",           407,           -1.,       -4.6875,            0.,NA,NA,"",       1.18633,      -1.18411,  -72.5335E-03,   186.429E-06
C:/temp/dataset/test2/12_9.odb,Step-1,Increment      1: Step Time =    1.000,"PART-1-1",           408,            0.,        -5.625,            0.,NA,NA,"",       1.13630,      -1.13615,  -18.4523E-03,   213.906E-06
C:/temp/dataset/test2/12_9.odb,Step-1,Increment      1: Step Time =    1.000,"PART-1-1",           409,           -3.,       -4.6875,            0.,NA,NA,"",       1.19477,      -1.18144,  -178.020E-03,   169.217E-06
C:/temp/dataset/test2/12_9.odb,Step-1,Increment      1: Step Time =    1.000,"PART-1-1",           410,           -2.,        -5.625,            0.,NA,NA,"",       1.14028,      -1.13353,  -123.895E-03,   180.205E-06
C:/temp/dataset/test2/12_9.odb,Step-1,Increment      1: Step Time =    1.000,"PART-1-1",           411,           -5.,       -4.6875,            0.,NA,NA,"",       1.21216,      -1.17856,  -283.428E-03,   223.596E-06
C:/temp/dataset/test2/12_9.odb,Step-1,Increment      1: Step Time =    1.000,"PART-1-1",           412,           -4.,        -5.625,            0.,NA,NA,"",       1.15379,      -1.13071,  -229.600E-03,   205.896E-06
C:/temp/dataset/test2/12_9.odb,Step-1,Increment      1: Step Time =    1.000,"PART-1-1",           413,            3.,       -6.5625,            0.,NA,NA,"",       1.09976,      -1.09083,   139.893E-03,   254.108E-06
C:/temp/dataset/test2/12_9.odb,Step-1,Increment      1: Step Time =    1.000,"PART-1-1",           414,            4.,          -7.5,            0.,NA,NA,"",       1.06097,      -1.04328,   192.915E-03,   387.698E-06
C:/temp/dataset/test2/12_9.odb,Step-1,Increment      1: Step Time =    1.000,"PART-1-1",           415,            5.,       -6.5625,            0.,NA,NA,"",       1.12060,      -1.09373,   243.909E-03,   562.927E-06
C:/temp/dataset/test2/12_9.odb,Step-1,Increment      1: Step Time =    1.000,"PART-1-1",           416,            1.,       -6.5625,            0.,NA,NA,"",       1.08883,      -1.08825,   35.5274E-03,   238.767E-06
C:/temp/dataset/test2/12_9.odb,Step-1,Increment      1: Step Time =    1.000,"PART-1-1",           417,            2.,          -7.5,            0.,NA,NA,"",       1.04436,      -1.04053,   89.2649E-03,   218.177E-06
C:/temp/dataset/test2/12_9.odb,Step-1,Increment      1: Step Time =    1.000,"PART-1-1",           418,           -1.,       -6.5625,            0.,NA,NA,"",       1.08781,      -1.08558,  -69.6831E-03,   193.197E-06
C:/temp/dataset/test2/12_9.odb,Step-1,Increment      1: Step Time =    1.000,"PART-1-1",           419,            0.,          -7.5,            0.,NA,NA,"",       1.03781,      -1.03770,  -15.5469E-03,   247.368E-06
C:/temp/dataset/test2/12_9.odb,Step-1,Increment      1: Step Time =    1.000,"PART-1-1",           420,           -3.,       -6.5625,            0.,NA,NA,"",       1.09691,      -1.08278,  -175.480E-03,   172.194E-06
C:/temp/dataset/test2/12_9.odb,Step-1,Increment      1: Step Time =    1.000,"PART-1-1",           421,           -2.,          -7.5,            0.,NA,NA,"",       1.04180,      -1.03472,  -121.182E-03,   148.969E-06
C:/temp/dataset/test2/12_9.odb,Step-1,Increment      1: Step Time =    1.000,"PART-1-1",           422,           -5.,       -6.5625,            0.,NA,NA,"",       1.11582,      -1.07977,  -281.345E-03,   398.781E-06
C:/temp/dataset/test2/12_9.odb,Step-1,Increment      1: Step Time =    1.000,"PART-1-1",           423,           -4.,          -7.5,            0.,NA,NA,"",       1.05649,      -1.03174,  -227.344E-03,   288.418E-06
C:/temp/dataset/test2/12_9.odb,Step-1,Increment      1: Step Time =    1.000,"PART-1-1",           424,            3.,       -8.4375,            0.,NA,NA,"",       1.00346,  -993.283E-03,   142.588E-03,   314.099E-06
C:/temp/dataset/test2/12_9.odb,Step-1,Increment      1: Step Time =    1.000,"PART-1-1",           425,            4.,        -9.375,            0.,NA,NA,"",   966.753E-03,  -946.929E-03,   194.774E-03,   682.596E-06
C:/temp/dataset/test2/12_9.odb,Step-1,Increment      1: Step Time =    1.000,"PART-1-1",           426,            5.,       -8.4375,            0.,NA,NA,"",       1.02608,  -996.371E-03,   245.129E-03,   925.994E-06
C:/temp/dataset/test2/12_9.odb,Step-1,Increment      1: Step Time =    1.000,"PART-1-1",           427,            1.,       -8.4375,            0.,NA,NA,"",   990.889E-03,  -990.146E-03,   38.3657E-03,   553.574E-06
C:/temp/dataset/test2/12_9.odb,Step-1,Increment      1: Step Time =    1.000,"PART-1-1",           428,            2.,        -9.375,            0.,NA,NA,"",   947.856E-03,  -943.391E-03,   91.8988E-03,   977.602E-06
C:/temp/dataset/test2/12_9.odb,Step-1,Increment      1: Step Time =    1.000,"PART-1-1",           429,           -1.,       -8.4375,            0.,NA,NA,"",   988.943E-03,  -986.674E-03,  -66.9456E-03,   408.778E-06
C:/temp/dataset/test2/12_9.odb,Step-1,Increment      1: Step Time =    1.000,"PART-1-1",           430,            0.,        -9.375,            0.,NA,NA,"",   939.037E-03,  -938.946E-03,  -13.0711E-03,   846.973E-06
C:/temp/dataset/test2/12_9.odb,Step-1,Increment      1: Step Time =    1.000,"PART-1-1",           431,           -3.,       -8.4375,            0.,NA,NA,"",   998.550E-03,  -983.457E-03,  -172.960E-03,   136.850E-06
C:/temp/dataset/test2/12_9.odb,Step-1,Increment      1: Step Time =    1.000,"PART-1-1",           432,           -2.,        -9.375,            0.,NA,NA,"",   942.453E-03,  -934.964E-03,  -118.576E-03,   538.126E-06
C:/temp/dataset/test2/12_9.odb,Step-1,Increment      1: Step Time =    1.000,"PART-1-1",           433,           -5.,       -8.4375,            0.,NA,NA,"",       1.01938,  -980.294E-03,  -279.571E-03,   530.900E-06
C:/temp/dataset/test2/12_9.odb,Step-1,Increment      1: Step Time =    1.000,"PART-1-1",           434,           -4.,        -9.375,            0.,NA,NA,"",   958.521E-03,  -931.718E-03,  -225.091E-03,   312.025E-06
C:/temp/dataset/test2/12_9.odb,Step-1,Increment      1: Step Time =    1.000,"PART-1-1",           435,            3.,      -10.3125,            0.,NA,NA,"",   910.205E-03,  -898.609E-03,   144.827E-03,   2.64077E-03
C:/temp/dataset/test2/12_9.odb,Step-1,Increment      1: Step Time =    1.000,"PART-1-1",           436,            4.,        -11.25,            0.,NA,NA,"",   879.326E-03,  -856.939E-03,   197.152E-03,   5.19715E-03
C:/temp/dataset/test2/12_9.odb,Step-1,Increment      1: Step Time =    1.000,"PART-1-1",           437,            5.,      -10.3125,            0.,NA,NA,"",   934.620E-03,  -901.999E-03,   244.768E-03,   1.20748E-03
C:/temp/dataset/test2/12_9.odb,Step-1,Increment      1: Step Time =    1.000,"PART-1-1",           438,            1.,      -10.3125,            0.,NA,NA,"",   892.956E-03,  -892.055E-03,   40.1136E-03,   2.09630E-03
C:/temp/dataset/test2/12_9.odb,Step-1,Increment      1: Step Time =    1.000,"PART-1-1",           439,            2.,        -11.25,            0.,NA,NA,"",   851.803E-03,  -846.786E-03,   92.3102E-03,   3.85511E-03
C:/temp/dataset/test2/12_9.odb,Step-1,Increment      1: Step Time =    1.000,"PART-1-1",           440,           -1.,      -10.3125,            0.,NA,NA,"",   888.874E-03,  -886.516E-03,  -64.7054E-03,   1.49817E-03
C:/temp/dataset/test2/12_9.odb,Step-1,Increment      1: Step Time =    1.000,"PART-1-1",           441,            0.,        -11.25,            0.,NA,NA,"",   838.586E-03,  -838.502E-03,  -11.8663E-03,   2.70080E-03
C:/temp/dataset/test2/12_9.odb,Step-1,Increment      1: Step Time =    1.000,"PART-1-1",           442,           -3.,      -10.3125,            0.,NA,NA,"",   898.889E-03,  -882.603E-03,  -170.337E-03,   850.397E-06
C:/temp/dataset/test2/12_9.odb,Step-1,Increment      1: Step Time =    1.000,"PART-1-1",           443,           -2.,        -11.25,            0.,NA,NA,"",   841.154E-03,  -833.103E-03,  -116.096E-03,   1.79203E-03
C:/temp/dataset/test2/12_9.odb,Step-1,Increment      1: Step Time =    1.000,"PART-1-1",           444,           -5.,      -10.3125,            0.,NA,NA,"",   922.288E-03,  -879.435E-03,  -277.863E-03,   363.609E-06
C:/temp/dataset/test2/12_9.odb,Step-1,Increment      1: Step Time =    1.000,"PART-1-1",           445,           -4.,        -11.25,            0.,NA,NA,"",   859.048E-03,  -829.762E-03,  -222.391E-03,   682.509E-06
C:/temp/dataset/test2/12_9.odb,Step-1,Increment      1: Step Time =    1.000,"PART-1-1",           446,            3.,      -12.1875,            0.,NA,NA,"",   816.156E-03,  -803.514E-03,   143.092E-03,   7.14613E-03
C:/temp/dataset/test2/12_9.odb,Step-1,Increment      1: Step Time =    1.000,"PART-1-1",           447,            4.,       -13.125,            0.,NA,NA,"",   785.237E-03,  -761.109E-03,   193.157E-03,   9.06832E-03
C:/temp/dataset/test2/12_9.odb,Step-1,Increment      1: Step Time =    1.000,"PART-1-1",           448,            5.,      -12.1875,            0.,NA,NA,"",   855.966E-03,  -819.933E-03,   245.740E-03,   7.39522E-03
C:/temp/dataset/test2/12_9.odb,Step-1,Increment      1: Step Time =    1.000,"PART-1-1",           449,            1.,      -12.1875,            0.,NA,NA,"",   792.249E-03,  -791.268E-03,   39.4087E-03,   4.82077E-03
C:/temp/dataset/test2/12_9.odb,Step-1,Increment      1: Step Time =    1.000,"PART-1-1",           450,            2.,       -13.125,            0.,NA,NA,"",   749.978E-03,  -744.687E-03,   88.9310E-03,   7.67436E-03
C:/temp/dataset/test2/12_9.odb,Step-1,Increment      1: Step Time =    1.000,"PART-1-1",           451,           -1.,      -12.1875,            0.,NA,NA,"",   785.992E-03,  -783.453E-03,  -63.1235E-03,   3.46264E-03
C:/temp/dataset/test2/12_9.odb,Step-1,Increment      1: Step Time =    1.000,"PART-1-1",           452,            0.,       -13.125,            0.,NA,NA,"",   733.918E-03,  -733.820E-03,  -12.0064E-03,   5.41757E-03
C:/temp/dataset/test2/12_9.odb,Step-1,Increment      1: Step Time =    1.000,"PART-1-1",           453,           -3.,      -12.1875,            0.,NA,NA,"",   796.916E-03,  -779.187E-03,  -167.159E-03,   2.23634E-03
C:/temp/dataset/test2/12_9.odb,Step-1,Increment      1: Step Time =    1.000,"PART-1-1",           454,           -2.,       -13.125,            0.,NA,NA,"",   736.738E-03,  -727.981E-03,  -113.252E-03,   3.74380E-03
C:/temp/dataset/test2/12_9.odb,Step-1,Increment      1: Step Time =    1.000,"PART-1-1",           455,           -5.,      -12.1875,            0.,NA,NA,"",   823.903E-03,  -776.524E-03,  -275.369E-03,   513.409E-06
C:/temp/dataset/test2/12_9.odb,Step-1,Increment      1: Step Time =    1.000,"PART-1-1",           456,           -4.,       -13.125,            0.,NA,NA,"",   757.397E-03,  -725.250E-03,  -218.318E-03,   1.88820E-03
C:/temp/dataset/test2/12_9.odb,Step-1,Increment      1: Step Time =    1.000,"PART-1-1",           457,            3.,      -14.0625,            0.,NA,NA,"",   710.058E-03,  -696.624E-03,   137.470E-03,   10.0030E-03
C:/temp/dataset/test2/12_9.odb,Step-1,Increment      1: Step Time =    1.000,"PART-1-1",           458,            4.,          -15.,            0.,NA,NA,"",   671.518E-03,  -644.744E-03,   187.726E-03,   8.64964E-03
C:/temp/dataset/test2/12_9.odb,Step-1,Increment      1: Step Time =    1.000,"PART-1-1",           459,            5.,      -14.0625,            0.,NA,NA,"",   757.097E-03,  -714.910E-03,   249.197E-03,   7.79453E-03
C:/temp/dataset/test2/12_9.odb,Step-1,Increment      1: Step Time =    1.000,"PART-1-1",           460,            1.,      -14.0625,            0.,NA,NA,"",   684.886E-03,  -683.881E-03,   37.0891E-03,   7.53559E-03
C:/temp/dataset/test2/12_9.odb,Step-1,Increment      1: Step Time =    1.000,"PART-1-1",           461,            2.,          -15.,            0.,NA,NA,"",   638.322E-03,  -632.665E-03,   84.7926E-03,   9.11947E-03
C:/temp/dataset/test2/12_9.odb,Step-1,Increment      1: Step Time =    1.000,"PART-1-1",           462,           -1.,      -14.0625,            0.,NA,NA,"",   679.061E-03,  -676.279E-03,  -61.4052E-03,   5.77963E-03
C:/temp/dataset/test2/12_9.odb,Step-1,Increment      1: Step Time =    1.000,"PART-1-1",           463,            0.,          -15.,            0.,NA,NA,"",   624.212E-03,  -624.099E-03,  -11.8926E-03,   7.68671E-03
C:/temp/dataset/test2/12_9.odb,Step-1,Increment      1: Step Time =    1.000,"PART-1-1",           464,           -3.,      -14.0625,            0.,NA,NA,"",   692.197E-03,  -672.851E-03,  -162.505E-03,   4.11083E-03
C:/temp/dataset/test2/12_9.odb,Step-1,Increment      1: Step Time =    1.000,"PART-1-1",           465,           -2.,          -15.,            0.,NA,NA,"",   629.264E-03,  -619.756E-03,  -108.975E-03,   5.82603E-03
C:/temp/dataset/test2/12_9.odb,Step-1,Increment      1: Step Time =    1.000,"PART-1-1",           466,           -5.,      -14.0625,            0.,NA,NA,"",   724.001E-03,  -671.554E-03,  -270.542E-03,   2.38797E-03
C:/temp/dataset/test2/12_9.odb,Step-1,Increment      1: Step Time =    1.000,"PART-1-1",           467,           -4.,          -15.,            0.,NA,NA,"",   653.836E-03,  -618.653E-03,  -211.589E-03,   3.87381E-03
C:/temp/dataset/test2/12_9.odb,Step-1,Increment      1: Step Time =    1.000,"PART-1-1",           468,            3.,      -15.9375,            0.,NA,NA,"",   594.510E-03,  -579.426E-03,   133.072E-03,   8.80157E-03
C:/temp/dataset/test2/12_9.odb,Step-1,Increment      1: Step Time =    1.000,"PART-1-1",           469,            4.,       -16.875,            0.,NA,NA,"",   556.713E-03,  -525.431E-03,   183.989E-03,   6.91090E-03
C:/temp/dataset/test2/12_9.odb,Step-1,Increment      1: Step Time =    1.000,"PART-1-1",           470,            5.,      -15.9375,            0.,NA,NA,"",   637.138E-03,  -587.639E-03,   246.221E-03,   6.74907E-03
C:/temp/dataset/test2/12_9.odb,Step-1,Increment      1: Step Time =    1.000,"PART-1-1",           471,            1.,      -15.9375,            0.,NA,NA,"",   572.337E-03,  -571.222E-03,   35.7093E-03,   8.92059E-03
C:/temp/dataset/test2/12_9.odb,Step-1,Increment      1: Step Time =    1.000,"PART-1-1",           472,            2.,       -16.875,            0.,NA,NA,"",   524.347E-03,  -517.848E-03,   82.3036E-03,   8.54324E-03
C:/temp/dataset/test2/12_9.odb,Step-1,Increment      1: Step Time =    1.000,"PART-1-1",           473,           -1.,      -15.9375,            0.,NA,NA,"",   569.230E-03,  -566.247E-03,  -58.2005E-03,   7.65535E-03
C:/temp/dataset/test2/12_9.odb,Step-1,Increment      1: Step Time =    1.000,"PART-1-1",           474,            0.,       -16.875,            0.,NA,NA,"",   512.775E-03,  -512.674E-03,  -10.1506E-03,   8.63021E-03
C:/temp/dataset/test2/12_9.odb,Step-1,Increment      1: Step Time =    1.000,"PART-1-1",           475,           -3.,      -15.9375,            0.,NA,NA,"",   585.774E-03,  -564.822E-03,  -155.268E-03,   6.12643E-03
C:/temp/dataset/test2/12_9.odb,Step-1,Increment      1: Step Time =    1.000,"PART-1-1",           476,           -2.,       -16.875,            0.,NA,NA,"",   520.874E-03,  -510.726E-03,  -102.316E-03,   7.48134E-03
C:/temp/dataset/test2/12_9.odb,Step-1,Increment      1: Step Time =    1.000,"PART-1-1",           477,           -5.,      -15.9375,            0.,NA,NA,"",   623.327E-03,  -565.795E-03,  -261.558E-03,   5.28254E-03
C:/temp/dataset/test2/12_9.odb,Step-1,Increment      1: Step Time =    1.000,"PART-1-1",           478,           -4.,       -16.875,            0.,NA,NA,"",   550.013E-03,  -511.965E-03,  -201.013E-03,   6.43499E-03
C:/temp/dataset/test2/12_9.odb,Step-1,Increment      1: Step Time =    1.000,"PART-1-1",           479,            3.,      -17.8125,            0.,NA,NA,"",   483.110E-03,  -465.676E-03,   128.613E-03,   8.05897E-03
C:/temp/dataset/test2/12_9.odb,Step-1,Increment      1: Step Time =    1.000,"PART-1-1",           480,            4.,        -18.75,            0.,NA,NA,"",   451.688E-03,  -416.984E-03,   173.626E-03,   9.87795E-03
C:/temp/dataset/test2/12_9.odb,Step-1,Increment      1: Step Time =    1.000,"PART-1-1",           481,            5.,      -17.8125,            0.,NA,NA,"",   530.163E-03,  -475.755E-03,   233.945E-03,   10.4554E-03
C:/temp/dataset/test2/12_9.odb,Step-1,Increment      1: Step Time =    1.000,"PART-1-1",           482,            1.,      -17.8125,            0.,NA,NA,"",   461.036E-03,  -459.664E-03,   35.5510E-03,   9.04789E-03
C:/temp/dataset/test2/12_9.odb,Step-1,Increment      1: Step Time =    1.000,"PART-1-1",           483,            2.,        -18.75,            0.,NA,NA,"",   416.093E-03,  -408.504E-03,   79.1090E-03,   8.40659E-03
C:/temp/dataset/test2/12_9.odb,Step-1,Increment      1: Step Time =    1.000,"PART-1-1",           484,           -1.,      -17.8125,            0.,NA,NA,"",   460.063E-03,  -457.002E-03,  -52.9855E-03,   8.71799E-03
C:/temp/dataset/test2/12_9.odb,Step-1,Increment      1: Step Time =    1.000,"PART-1-1",           485,            0.,        -18.75,            0.,NA,NA,"",   404.527E-03,  -404.461E-03,  -7.26814E-03,   8.73146E-03
C:/temp/dataset/test2/12_9.odb,Step-1,Increment      1: Step Time =    1.000,"PART-1-1",           486,           -3.,      -17.8125,            0.,NA,NA,"",   480.212E-03,  -457.891E-03,  -144.707E-03,   8.06013E-03
C:/temp/dataset/test2/12_9.odb,Step-1,Increment      1: Step Time =    1.000,"PART-1-1",           487,           -2.,        -18.75,            0.,NA,NA,"",   415.019E-03,  -404.452E-03,  -93.0554E-03,   8.64804E-03
C:/temp/dataset/test2/12_9.odb,Step-1,Increment      1: Step Time =    1.000,"PART-1-1",           488,           -5.,      -17.8125,            0.,NA,NA,"",   523.662E-03,  -461.751E-03,  -246.998E-03,   8.88110E-03
C:/temp/dataset/test2/12_9.odb,Step-1,Increment      1: Step Time =    1.000,"PART-1-1",           489,           -4.,        -18.75,            0.,NA,NA,"",   448.562E-03,  -408.243E-03,  -185.865E-03,   9.30578E-03
C:/temp/dataset/test2/12_9.odb,Step-1,Increment      1: Step Time =    1.000,"PART-1-1",           490,            3.,      -19.6875,            0.,NA,NA,"",   380.167E-03,  -360.703E-03,   120.084E-03,   9.70346E-03
C:/temp/dataset/test2/12_9.odb,Step-1,Increment      1: Step Time =    1.000,"PART-1-1",           491,            4.,       -20.625,            0.,NA,NA,"",   354.417E-03,  -317.316E-03,   157.868E-03,   12.7088E-03
C:/temp/dataset/test2/12_9.odb,Step-1,Increment      1: Step Time =    1.000,"PART-1-1",           492,            5.,      -19.6875,            0.,NA,NA,"",   430.924E-03,  -372.779E-03,   216.174E-03,   13.8856E-03
C:/temp/dataset/test2/12_9.odb,Step-1,Increment      1: Step Time =    1.000,"PART-1-1",           493,            1.,      -19.6875,            0.,NA,NA,"",   355.872E-03,  -354.164E-03,   34.8167E-03,   8.98639E-03
C:/temp/dataset/test2/12_9.odb,Step-1,Increment      1: Step Time =    1.000,"PART-1-1",           494,            2.,       -20.625,            0.,NA,NA,"",   315.848E-03,  -307.288E-03,   73.0335E-03,   9.27798E-03
C:/temp/dataset/test2/12_9.odb,Step-1,Increment      1: Step Time =    1.000,"PART-1-1",           495,           -1.,      -19.6875,            0.,NA,NA,"",   355.562E-03,  -352.542E-03,  -46.2408E-03,   9.19463E-03
C:/temp/dataset/test2/12_9.odb,Step-1,Increment      1: Step Time =    1.000,"PART-1-1",           496,            0.,       -20.625,            0.,NA,NA,"",   303.173E-03,  -303.141E-03,  -4.37876E-03,   8.69668E-03
C:/temp/dataset/test2/12_9.odb,Step-1,Increment      1: Step Time =    1.000,"PART-1-1",           497,           -3.,      -19.6875,            0.,NA,NA,"",   378.722E-03,  -355.483E-03,  -130.621E-03,   9.91979E-03
C:/temp/dataset/test2/12_9.odb,Step-1,Increment      1: Step Time =    1.000,"PART-1-1",           498,           -2.,       -20.625,            0.,NA,NA,"",   315.150E-03,  -304.438E-03,  -81.4654E-03,   9.59976E-03
C:/temp/dataset/test2/12_9.odb,Step-1,Increment      1: Step Time =    1.000,"PART-1-1",           499,           -5.,      -19.6875,            0.,NA,NA,"",   427.297E-03,  -362.516E-03,  -226.197E-03,   12.7903E-03
C:/temp/dataset/test2/12_9.odb,Step-1,Increment      1: Step Time =    1.000,"PART-1-1",           500,           -4.,       -20.625,            0.,NA,NA,"",   352.273E-03,  -310.755E-03,  -165.916E-03,   12.2937E-03
C:/temp/dataset/test2/12_9.odb,Step-1,Increment      1: Step Time =    1.000,"PART-1-1",           501,            3.,      -21.5625,            0.,NA,NA,"",   285.658E-03,  -264.849E-03,   107.033E-03,   11.7413E-03
C:/temp/dataset/test2/12_9.odb,Step-1,Increment      1: Step Time =    1.000,"PART-1-1",           502,            4.,         -22.5,            0.,NA,NA,"",   265.503E-03,  -227.657E-03,   136.616E-03,   15.6072E-03
C:/temp/dataset/test2/12_9.odb,Step-1,Increment      1: Step Time =    1.000,"PART-1-1",           503,            5.,      -21.5625,            0.,NA,NA,"",   338.818E-03,  -279.056E-03,   192.159E-03,   17.3644E-03
C:/temp/dataset/test2/12_9.odb,Step-1,Increment      1: Step Time =    1.000,"PART-1-1",           504,            1.,      -21.5625,            0.,NA,NA,"",   259.314E-03,  -257.291E-03,   32.3269E-03,   9.21401E-03
C:/temp/dataset/test2/12_9.odb,Step-1,Increment      1: Step Time =    1.000,"PART-1-1",           505,            2.,         -22.5,            0.,NA,NA,"",   225.152E-03,  -215.957E-03,   63.6850E-03,   10.4588E-03
C:/temp/dataset/test2/12_9.odb,Step-1,Increment      1: Step Time =    1.000,"PART-1-1",           506,           -1.,      -21.5625,            0.,NA,NA,"",   258.961E-03,  -256.074E-03,  -38.5614E-03,   9.46335E-03
C:/temp/dataset/test2/12_9.odb,Step-1,Increment      1: Step Time =    1.000,"PART-1-1",           507,            0.,         -22.5,            0.,NA,NA,"",   211.383E-03,  -211.372E-03,  -2.08899E-03,   8.71163E-03
C:/temp/dataset/test2/12_9.odb,Step-1,Increment      1: Step Time =    1.000,"PART-1-1",           508,           -3.,      -21.5625,            0.,NA,NA,"",   284.282E-03,  -260.820E-03,  -113.089E-03,   11.8137E-03
C:/temp/dataset/test2/12_9.odb,Step-1,Increment      1: Step Time =    1.000,"PART-1-1",           509,           -2.,         -22.5,            0.,NA,NA,"",   224.179E-03,  -213.672E-03,  -67.8267E-03,   10.5836E-03
C:/temp/dataset/test2/12_9.odb,Step-1,Increment      1: Step Time =    1.000,"PART-1-1",           510,           -5.,      -21.5625,            0.,NA,NA,"",   336.366E-03,  -271.126E-03,  -199.080E-03,   16.7270E-03
C:/temp/dataset/test2/12_9.odb,Step-1,Increment      1: Step Time =    1.000,"PART-1-1",           511,           -4.,         -22.5,            0.,NA,NA,"",   263.529E-03,  -222.500E-03,  -141.213E-03,   15.2855E-03
C:/temp/dataset/test2/12_9.odb,Step-1,Increment      1: Step Time =    1.000,"PART-1-1",           512,            3.,      -23.4375,            0.,NA,NA,"",   201.019E-03,  -179.983E-03,   89.5249E-03,   13.8668E-03
C:/temp/dataset/test2/12_9.odb,Step-1,Increment      1: Step Time =    1.000,"PART-1-1",           513,            4.,       -24.375,            0.,NA,NA,"",   185.896E-03,  -149.991E-03,   109.819E-03,   18.5806E-03
C:/temp/dataset/test2/12_9.odb,Step-1,Increment      1: Step Time =    1.000,"PART-1-1",           514,            5.,      -23.4375,            0.,NA,NA,"",   254.352E-03,  -196.332E-03,   161.705E-03,   20.9806E-03
C:/temp/dataset/test2/12_9.odb,Step-1,Increment      1: Step Time =    1.000,"PART-1-1",           515,            1.,      -23.4375,            0.,NA,NA,"",   173.506E-03,  -171.265E-03,   27.7964E-03,   9.66105E-03
C:/temp/dataset/test2/12_9.odb,Step-1,Increment      1: Step Time =    1.000,"PART-1-1",           516,            2.,       -24.375,            0.,NA,NA,"",   145.805E-03,  -136.630E-03,   50.9054E-03,   11.7665E-03
C:/temp/dataset/test2/12_9.odb,Step-1,Increment      1: Step Time =    1.000,"PART-1-1",           517,           -1.,      -23.4375,            0.,NA,NA,"",   172.924E-03,  -170.254E-03,  -30.2719E-03,   9.76715E-03
C:/temp/dataset/test2/12_9.odb,Step-1,Increment      1: Step Time =    1.000,"PART-1-1",           518,            0.,       -24.375,            0.,NA,NA,"",   131.512E-03,  -131.510E-03,  -577.007E-06,   8.78077E-03
C:/temp/dataset/test2/12_9.odb,Step-1,Increment      1: Step Time =    1.000,"PART-1-1",           519,           -3.,      -23.4375,            0.,NA,NA,"",   199.365E-03,  -176.745E-03,  -92.2365E-03,   13.7735E-03
C:/temp/dataset/test2/12_9.odb,Step-1,Increment      1: Step Time =    1.000,"PART-1-1",           520,           -2.,       -24.375,            0.,NA,NA,"",   144.495E-03,  -134.753E-03,  -52.1576E-03,   11.6691E-03
C:/temp/dataset/test2/12_9.odb,Step-1,Increment      1: Step Time =    1.000,"PART-1-1",           521,           -5.,      -23.4375,            0.,NA,NA,"",   252.459E-03,  -190.334E-03,  -165.857E-03,   20.6253E-03
C:/temp/dataset/test2/12_9.odb,Step-1,Increment      1: Step Time =    1.000,"PART-1-1",           522,           -4.,       -24.375,            0.,NA,NA,"",   183.943E-03,  -146.032E-03,  -111.846E-03,   18.3103E-03
C:/temp/dataset/test2/12_9.odb,Step-1,Increment      1: Step Time =    1.000,"PART-1-1",           523,            3.,      -25.3125,            0.,NA,NA,"",   127.443E-03,  -108.187E-03,   67.3595E-03,   16.2090E-03
C:/temp/dataset/test2/12_9.odb,Step-1,Increment      1: Step Time =    1.000,"PART-1-1",           524,            4.,        -26.25,            0.,NA,NA,"",   116.377E-03,  -86.7180E-03,   77.6114E-03,   21.5025E-03
C:/temp/dataset/test2/12_9.odb,Step-1,Increment      1: Step Time =    1.000,"PART-1-1",           525,            5.,      -25.3125,            0.,NA,NA,"",   177.687E-03,  -126.655E-03,   124.624E-03,   24.3219E-03
C:/temp/dataset/test2/12_9.odb,Step-1,Increment      1: Step Time =    1.000,"PART-1-1",           526,            1.,      -25.3125,            0.,NA,NA,"",   100.596E-03,  -98.3706E-03,   21.0432E-03,   10.1071E-03
C:/temp/dataset/test2/12_9.odb,Step-1,Increment      1: Step Time =    1.000,"PART-1-1",           527,            2.,        -26.25,            0.,NA,NA,"",   79.6864E-03,  -71.6302E-03,   34.9147E-03,   13.2936E-03
C:/temp/dataset/test2/12_9.odb,Step-1,Increment      1: Step Time =    1.000,"PART-1-1",           528,           -1.,      -25.3125,            0.,NA,NA,"",   99.8274E-03,  -97.5281E-03,  -21.3019E-03,   10.0365E-03
C:/temp/dataset/test2/12_9.odb,Step-1,Increment      1: Step Time =    1.000,"PART-1-1",           529,            0.,        -26.25,            0.,NA,NA,"",   66.1724E-03,  -66.1723E-03,   145.588E-06,   8.74140E-03
C:/temp/dataset/test2/12_9.odb,Step-1,Increment      1: Step Time =    1.000,"PART-1-1",           530,           -3.,      -25.3125,            0.,NA,NA,"",   125.600E-03,  -105.640E-03,  -67.9378E-03,   15.9925E-03
C:/temp/dataset/test2/12_9.odb,Step-1,Increment      1: Step Time =    1.000,"PART-1-1",           531,           -2.,        -26.25,            0.,NA,NA,"",   78.2263E-03,  -70.1102E-03,  -34.6974E-03,   13.0247E-03
C:/temp/dataset/test2/12_9.odb,Step-1,Increment      1: Step Time =    1.000,"PART-1-1",           532,           -5.,      -25.3125,            0.,NA,NA,"",   176.201E-03,  -122.437E-03,  -126.713E-03,   24.1119E-03
C:/temp/dataset/test2/12_9.odb,Step-1,Increment      1: Step Time =    1.000,"PART-1-1",           533,           -4.,        -26.25,            0.,NA,NA,"",   114.566E-03,  -83.8716E-03,  -78.0448E-03,   21.2428E-03
C:/temp/dataset/test2/12_9.odb,Step-1,Increment      1: Step Time =    1.000,"PART-1-1",           534,            3.,      -27.1875,            0.,NA,NA,"",   65.7015E-03,  -51.3779E-03,   40.9511E-03,   18.1974E-03
C:/temp/dataset/test2/12_9.odb,Step-1,Increment      1: Step Time =    1.000,"PART-1-1",           535,            4.,       -28.125,            0.,NA,NA,"",   53.4724E-03,  -36.5956E-03,   38.9879E-03,   24.9012E-03
C:/temp/dataset/test2/12_9.odb,Step-1,Increment      1: Step Time =    1.000,"PART-1-1",           536,            5.,      -27.1875,            0.,NA,NA,"",   109.377E-03,  -72.1415E-03,   82.2131E-03,   28.3424E-03
C:/temp/dataset/test2/12_9.odb,Step-1,Increment      1: Step Time =    1.000,"PART-1-1",           537,            1.,      -27.1875,            0.,NA,NA,"",   43.5265E-03,  -41.6697E-03,   12.5774E-03,   9.98392E-03
C:/temp/dataset/test2/12_9.odb,Step-1,Increment      1: Step Time =    1.000,"PART-1-1",           538,            2.,       -28.125,            0.,NA,NA,"",   28.9142E-03,  -23.8543E-03,   16.3404E-03,   13.9556E-03
C:/temp/dataset/test2/12_9.odb,Step-1,Increment      1: Step Time =    1.000,"PART-1-1",           539,           -1.,      -27.1875,            0.,NA,NA,"",   42.7551E-03,  -41.0079E-03,  -12.0975E-03,   9.76395E-03
C:/temp/dataset/test2/12_9.odb,Step-1,Increment      1: Step Time =    1.000,"PART-1-1",           540,            0.,       -28.125,            0.,NA,NA,"",   19.5650E-03,  -19.5639E-03,   206.459E-06,   7.44053E-03
C:/temp/dataset/test2/12_9.odb,Step-1,Increment      1: Step Time =    1.000,"PART-1-1",           541,           -3.,      -27.1875,            0.,NA,NA,"",   63.9915E-03,  -49.4846E-03,  -40.5733E-03,   17.8427E-03
C:/temp/dataset/test2/12_9.odb,Step-1,Increment      1: Step Time =    1.000,"PART-1-1",           542,           -2.,       -28.125,            0.,NA,NA,"",   27.8160E-03,  -22.8302E-03,  -15.8905E-03,   13.4835E-03
C:/temp/dataset/test2/12_9.odb,Step-1,Increment      1: Step Time =    1.000,"PART-1-1",           543,           -5.,      -27.1875,            0.,NA,NA,"",   108.265E-03,  -69.5069E-03,  -83.0068E-03,   28.3031E-03
C:/temp/dataset/test2/12_9.odb,Step-1,Increment      1: Step Time =    1.000,"PART-1-1",           544,           -4.,       -28.125,            0.,NA,NA,"",   51.9700E-03,  -34.7483E-03,  -38.6451E-03,   24.6372E-03
C:/temp/dataset/test2/12_9.odb,Step-1,Increment      1: Step Time =    1.000,"PART-1-1",           545,            3.,      -29.0625,            0.,NA,NA,"",   15.8894E-03,  -10.1762E-03,   12.2032E-03,   16.9173E-03
C:/temp/dataset/test2/12_9.odb,Step-1,Increment      1: Step Time =    1.000,"PART-1-1",           546,            4.,          -30.,            0.,NA,NA,"",            0.,  -747.865E-42,   32.2361E-39,   27.5373E-03
C:/temp/dataset/test2/12_9.odb,Step-1,Increment      1: Step Time =    1.000,"PART-1-1",           547,            5.,      -29.0625,            0.,NA,NA,"",   41.2294E-03,  -28.4747E-03,   29.8169E-03,   34.7295E-03
C:/temp/dataset/test2/12_9.odb,Step-1,Increment      1: Step Time =    1.000,"PART-1-1",           548,            1.,      -29.0625,            0.,NA,NA,"",   7.41682E-03,  -6.34494E-03,   3.84069E-03,   6.65930E-03
C:/temp/dataset/test2/12_9.odb,Step-1,Increment      1: Step Time =    1.000,"PART-1-1",           549,            2.,          -30.,            0.,NA,NA,"",            0.,  -1.62532E-39,   15.0606E-39,   9.78799E-03
C:/temp/dataset/test2/12_9.odb,Step-1,Increment      1: Step Time =    1.000,"PART-1-1",           550,           -1.,      -29.0625,            0.,NA,NA,"",   7.03979E-03,  -6.02077E-03,  -3.64815E-03,   6.36792E-03
C:/temp/dataset/test2/12_9.odb,Step-1,Increment      1: Step Time =    1.000,"PART-1-1",           551,            0.,          -30.,            0.,NA,NA,"",            0.,  -628.440E-42,  -3.09267E-42,   1.36487E-03
C:/temp/dataset/test2/12_9.odb,Step-1,Increment      1: Step Time =    1.000,"PART-1-1",           552,           -3.,      -29.0625,            0.,NA,NA,"",   15.1099E-03,  -9.22321E-03,  -11.9683E-03,   16.4189E-03
C:/temp/dataset/test2/12_9.odb,Step-1,Increment      1: Step Time =    1.000,"PART-1-1",           553,           -2.,          -30.,            0.,NA,NA,"",            0.,  -1.38109E-39,  -15.0583E-39,   9.48677E-03
C:/temp/dataset/test2/12_9.odb,Step-1,Increment      1: Step Time =    1.000,"PART-1-1",           554,           -5.,      -29.0625,            0.,NA,NA,"",   40.4702E-03,  -27.4539E-03,  -29.7341E-03,   34.3021E-03
C:/temp/dataset/test2/12_9.odb,Step-1,Increment      1: Step Time =    1.000,"PART-1-1",           555,           -4.,          -30.,            0.,NA,NA,"",            0.,  -305.943E-42,  -32.1811E-39,   26.8500E-03
