ODB Name,Step,Frame,Part Instance Name,    êﬂì_ÉâÉxÉã,X,Y,Z,Section Name,Material Name,Section Point,   U-Magnitude,          U-U1,          U-U2,       S-Mises
C:/temp/dataset/test2/14_9.odb,Step-1,Increment      1: Step Time =    1.000,"PART-1-1",             1,            5.,           30.,            0.,NA,NA,"",       1.06982,      -1.06645,   84.8244E-03,   46.1644E-12
C:/temp/dataset/test2/14_9.odb,Step-1,Increment      1: Step Time =    1.000,"PART-1-1",             2,            3.,           30.,            0.,NA,NA,"",       1.06734,      -1.06616,   50.3172E-03,   48.0107E-12
C:/temp/dataset/test2/14_9.odb,Step-1,Increment      1: Step Time =    1.000,"PART-1-1",             3,            1.,           30.,            0.,NA,NA,"",       1.06597,      -1.06586,   15.8100E-03,   45.7418E-12
C:/temp/dataset/test2/14_9.odb,Step-1,Increment      1: Step Time =    1.000,"PART-1-1",             4,           -1.,           30.,            0.,NA,NA,"",       1.06572,      -1.06556,  -18.6973E-03,   45.0737E-12
C:/temp/dataset/test2/14_9.odb,Step-1,Increment      1: Step Time =    1.000,"PART-1-1",             5,           -3.,           30.,            0.,NA,NA,"",       1.06659,      -1.06526,  -53.2045E-03,   45.7607E-12
C:/temp/dataset/test2/14_9.odb,Step-1,Increment      1: Step Time =    1.000,"PART-1-1",             6,           -5.,           30.,            0.,NA,NA,"",       1.06857,      -1.06496,  -87.7117E-03,   45.9522E-12
C:/temp/dataset/test2/14_9.odb,Step-1,Increment      1: Step Time =    1.000,"PART-1-1",             7,            5.,        28.125,            0.,NA,NA,"",       1.03760,      -1.03410,   85.1035E-03,   45.1993E-12
C:/temp/dataset/test2/14_9.odb,Step-1,Increment      1: Step Time =    1.000,"PART-1-1",             8,            3.,        28.125,            0.,NA,NA,"",       1.03504,      -1.03380,   50.5963E-03,   48.3426E-12
C:/temp/dataset/test2/14_9.odb,Step-1,Increment      1: Step Time =    1.000,"PART-1-1",             9,            1.,        28.125,            0.,NA,NA,"",       1.03363,      -1.03351,   16.0891E-03,   49.8982E-12
C:/temp/dataset/test2/14_9.odb,Step-1,Increment      1: Step Time =    1.000,"PART-1-1",            10,           -1.,        28.125,            0.,NA,NA,"",       1.03337,      -1.03321,  -18.4182E-03,   49.6325E-12
C:/temp/dataset/test2/14_9.odb,Step-1,Increment      1: Step Time =    1.000,"PART-1-1",            11,           -3.,        28.125,            0.,NA,NA,"",       1.03427,      -1.03291,  -52.9254E-03,   48.5648E-12
C:/temp/dataset/test2/14_9.odb,Step-1,Increment      1: Step Time =    1.000,"PART-1-1",            12,           -5.,        28.125,            0.,NA,NA,"",       1.03631,      -1.03261,  -87.4326E-03,   47.7197E-12
C:/temp/dataset/test2/14_9.odb,Step-1,Increment      1: Step Time =    1.000,"PART-1-1",            13,            5.,         26.25,            0.,NA,NA,"",       1.00538,      -1.00175,   85.3826E-03,   42.5010E-12
C:/temp/dataset/test2/14_9.odb,Step-1,Increment      1: Step Time =    1.000,"PART-1-1",            14,            3.,         26.25,            0.,NA,NA,"",       1.00275,      -1.00145,   50.8754E-03,   50.3915E-12
C:/temp/dataset/test2/14_9.odb,Step-1,Increment      1: Step Time =    1.000,"PART-1-1",            15,            1.,         26.25,            0.,NA,NA,"",       1.00129,      -1.00116,   16.3682E-03,   55.3813E-12
C:/temp/dataset/test2/14_9.odb,Step-1,Increment      1: Step Time =    1.000,"PART-1-1",            16,           -1.,         26.25,            0.,NA,NA,"",       1.00102,      -1.00086,  -18.1391E-03,   55.8990E-12
C:/temp/dataset/test2/14_9.odb,Step-1,Increment      1: Step Time =    1.000,"PART-1-1",            17,           -3.,         26.25,            0.,NA,NA,"",       1.00195,      -1.00056,  -52.6463E-03,   52.1187E-12
C:/temp/dataset/test2/14_9.odb,Step-1,Increment      1: Step Time =    1.000,"PART-1-1",            18,           -5.,         26.25,            0.,NA,NA,"",       1.00405,      -1.00026,  -87.1535E-03,   44.6948E-12
C:/temp/dataset/test2/14_9.odb,Step-1,Increment      1: Step Time =    1.000,"PART-1-1",            19,            5.,        24.375,            0.,NA,NA,"",   973.179E-03,  -969.402E-03,   85.6617E-03,   41.3276E-12
C:/temp/dataset/test2/14_9.odb,Step-1,Increment      1: Step Time =    1.000,"PART-1-1",            20,            3.,        24.375,            0.,NA,NA,"",   970.453E-03,  -969.104E-03,   51.1545E-03,   58.3111E-12
C:/temp/dataset/test2/14_9.odb,Step-1,Increment      1: Step Time =    1.000,"PART-1-1",            21,            1.,        24.375,            0.,NA,NA,"",   968.949E-03,  -968.806E-03,   16.6473E-03,   70.0756E-12
C:/temp/dataset/test2/14_9.odb,Step-1,Increment      1: Step Time =    1.000,"PART-1-1",            22,           -1.,        24.375,            0.,NA,NA,"",   968.673E-03,  -968.508E-03,  -17.8600E-03,   71.3104E-12
C:/temp/dataset/test2/14_9.odb,Step-1,Increment      1: Step Time =    1.000,"PART-1-1",            23,           -3.,        24.375,            0.,NA,NA,"",   969.626E-03,  -968.211E-03,  -52.3672E-03,   61.6279E-12
C:/temp/dataset/test2/14_9.odb,Step-1,Increment      1: Step Time =    1.000,"PART-1-1",            24,           -5.,        24.375,            0.,NA,NA,"",   971.804E-03,  -967.913E-03,  -86.8744E-03,   43.5416E-12
C:/temp/dataset/test2/14_9.odb,Step-1,Increment      1: Step Time =    1.000,"PART-1-1",            25,            5.,          22.5,            0.,NA,NA,"",   940.984E-03,  -937.051E-03,   85.9408E-03,   46.2690E-12
C:/temp/dataset/test2/14_9.odb,Step-1,Increment      1: Step Time =    1.000,"PART-1-1",            26,            3.,          22.5,            0.,NA,NA,"",   938.164E-03,  -936.753E-03,   51.4336E-03,   102.922E-12
C:/temp/dataset/test2/14_9.odb,Step-1,Increment      1: Step Time =    1.000,"PART-1-1",            27,            1.,          22.5,            0.,NA,NA,"",   936.609E-03,  -936.456E-03,   16.9264E-03,   128.645E-12
C:/temp/dataset/test2/14_9.odb,Step-1,Increment      1: Step Time =    1.000,"PART-1-1",            28,           -1.,          22.5,            0.,NA,NA,"",   936.323E-03,  -936.158E-03,  -17.5809E-03,   129.762E-12
C:/temp/dataset/test2/14_9.odb,Step-1,Increment      1: Step Time =    1.000,"PART-1-1",            29,           -3.,          22.5,            0.,NA,NA,"",   937.309E-03,  -935.860E-03,  -52.0881E-03,   107.193E-12
C:/temp/dataset/test2/14_9.odb,Step-1,Increment      1: Step Time =    1.000,"PART-1-1",            30,           -5.,          22.5,            0.,NA,NA,"",   939.562E-03,  -935.562E-03,  -86.5953E-03,   54.2509E-12
C:/temp/dataset/test2/14_9.odb,Step-1,Increment      1: Step Time =    1.000,"PART-1-1",            31,            5.,        20.625,            0.,NA,NA,"",   908.800E-03,  -904.701E-03,   86.2199E-03,   125.754E-12
C:/temp/dataset/test2/14_9.odb,Step-1,Increment      1: Step Time =    1.000,"PART-1-1",            32,            3.,        20.625,            0.,NA,NA,"",   905.880E-03,  -904.403E-03,   51.7127E-03,   245.985E-12
C:/temp/dataset/test2/14_9.odb,Step-1,Increment      1: Step Time =    1.000,"PART-1-1",            33,            1.,        20.625,            0.,NA,NA,"",   904.269E-03,  -904.105E-03,   17.2055E-03,   295.867E-12
C:/temp/dataset/test2/14_9.odb,Step-1,Increment      1: Step Time =    1.000,"PART-1-1",            34,           -1.,        20.625,            0.,NA,NA,"",   903.973E-03,  -903.807E-03,  -17.3018E-03,   296.228E-12
C:/temp/dataset/test2/14_9.odb,Step-1,Increment      1: Step Time =    1.000,"PART-1-1",            35,           -3.,        20.625,            0.,NA,NA,"",   904.994E-03,  -903.510E-03,  -51.8090E-03,   250.102E-12
C:/temp/dataset/test2/14_9.odb,Step-1,Increment      1: Step Time =    1.000,"PART-1-1",            36,           -5.,        20.625,            0.,NA,NA,"",   907.327E-03,  -903.212E-03,  -86.3162E-03,   141.715E-12
C:/temp/dataset/test2/14_9.odb,Step-1,Increment      1: Step Time =    1.000,"PART-1-1",            37,            5.,         18.75,            0.,NA,NA,"",   876.628E-03,  -872.350E-03,   86.4990E-03,   407.750E-12
C:/temp/dataset/test2/14_9.odb,Step-1,Increment      1: Step Time =    1.000,"PART-1-1",            38,            3.,         18.75,            0.,NA,NA,"",   873.601E-03,  -872.052E-03,   51.9918E-03,   561.236E-12
C:/temp/dataset/test2/14_9.odb,Step-1,Increment      1: Step Time =    1.000,"PART-1-1",            39,            1.,         18.75,            0.,NA,NA,"",   871.930E-03,  -871.755E-03,   17.4846E-03,   644.012E-12
C:/temp/dataset/test2/14_9.odb,Step-1,Increment      1: Step Time =    1.000,"PART-1-1",            40,           -1.,         18.75,            0.,NA,NA,"",   871.623E-03,  -871.457E-03,  -17.0226E-03,   643.545E-12
C:/temp/dataset/test2/14_9.odb,Step-1,Increment      1: Step Time =    1.000,"PART-1-1",            41,           -3.,         18.75,            0.,NA,NA,"",   872.682E-03,  -871.159E-03,  -51.5299E-03,   565.141E-12
C:/temp/dataset/test2/14_9.odb,Step-1,Increment      1: Step Time =    1.000,"PART-1-1",            42,           -5.,         18.75,            0.,NA,NA,"",   875.101E-03,  -870.861E-03,  -86.0371E-03,   427.795E-12
C:/temp/dataset/test2/14_9.odb,Step-1,Increment      1: Step Time =    1.000,"PART-1-1",            43,            5.,        16.875,            0.,NA,NA,"",   844.470E-03,  -839.999E-03,   86.7781E-03,   1.08463E-09
C:/temp/dataset/test2/14_9.odb,Step-1,Increment      1: Step Time =    1.000,"PART-1-1",            44,            3.,        16.875,            0.,NA,NA,"",   841.327E-03,  -839.702E-03,   52.2709E-03,   1.10621E-09
C:/temp/dataset/test2/14_9.odb,Step-1,Increment      1: Step Time =    1.000,"PART-1-1",            45,            1.,        16.875,            0.,NA,NA,"",   839.592E-03,  -839.404E-03,   17.7637E-03,   1.20712E-09
C:/temp/dataset/test2/14_9.odb,Step-1,Increment      1: Step Time =    1.000,"PART-1-1",            46,           -1.,        16.875,            0.,NA,NA,"",   839.273E-03,  -839.106E-03,  -16.7435E-03,   1.20576E-09
C:/temp/dataset/test2/14_9.odb,Step-1,Increment      1: Step Time =    1.000,"PART-1-1",            47,           -3.,        16.875,            0.,NA,NA,"",   840.373E-03,  -838.809E-03,  -51.2508E-03,   1.11000E-09
C:/temp/dataset/test2/14_9.odb,Step-1,Increment      1: Step Time =    1.000,"PART-1-1",            48,           -5.,        16.875,            0.,NA,NA,"",   842.885E-03,  -838.511E-03,  -85.7580E-03,   1.10832E-09
C:/temp/dataset/test2/14_9.odb,Step-1,Increment      1: Step Time =    1.000,"PART-1-1",            49,            5.,           15.,            0.,NA,NA,"",   812.328E-03,  -807.649E-03,   87.0572E-03,   2.41729E-09
C:/temp/dataset/test2/14_9.odb,Step-1,Increment      1: Step Time =    1.000,"PART-1-1",            50,            3.,           15.,            0.,NA,NA,"",   809.060E-03,  -807.351E-03,   52.5500E-03,   1.75868E-09
C:/temp/dataset/test2/14_9.odb,Step-1,Increment      1: Step Time =    1.000,"PART-1-1",            51,            1.,           15.,            0.,NA,NA,"",   807.255E-03,  -807.054E-03,   18.0428E-03,   1.80289E-09
C:/temp/dataset/test2/14_9.odb,Step-1,Increment      1: Step Time =    1.000,"PART-1-1",            52,           -1.,           15.,            0.,NA,NA,"",   806.924E-03,  -806.756E-03,  -16.4644E-03,   1.80036E-09
C:/temp/dataset/test2/14_9.odb,Step-1,Increment      1: Step Time =    1.000,"PART-1-1",            53,           -3.,           15.,            0.,NA,NA,"",   808.067E-03,  -806.458E-03,  -50.9717E-03,   1.76232E-09
C:/temp/dataset/test2/14_9.odb,Step-1,Increment      1: Step Time =    1.000,"PART-1-1",            54,           -5.,           15.,            0.,NA,NA,"",   810.679E-03,  -806.160E-03,  -85.4789E-03,   2.44466E-09
C:/temp/dataset/test2/14_9.odb,Step-1,Increment      1: Step Time =    1.000,"PART-1-1",            55,            5.,        13.125,            0.,NA,NA,"",   780.202E-03,  -775.298E-03,   87.3363E-03,   4.48288E-09
C:/temp/dataset/test2/14_9.odb,Step-1,Increment      1: Step Time =    1.000,"PART-1-1",            56,            3.,        13.125,            0.,NA,NA,"",   776.799E-03,  -775.001E-03,   52.8291E-03,   1.77403E-09
C:/temp/dataset/test2/14_9.odb,Step-1,Increment      1: Step Time =    1.000,"PART-1-1",            57,            1.,        13.125,            0.,NA,NA,"",   774.920E-03,  -774.703E-03,   18.3219E-03,   1.89635E-09
C:/temp/dataset/test2/14_9.odb,Step-1,Increment      1: Step Time =    1.000,"PART-1-1",            58,           -1.,        13.125,            0.,NA,NA,"",   774.574E-03,  -774.405E-03,  -16.1853E-03,   1.89203E-09
C:/temp/dataset/test2/14_9.odb,Step-1,Increment      1: Step Time =    1.000,"PART-1-1",            59,           -3.,        13.125,            0.,NA,NA,"",   775.766E-03,  -774.108E-03,  -50.6926E-03,   1.77693E-09
C:/temp/dataset/test2/14_9.odb,Step-1,Increment      1: Step Time =    1.000,"PART-1-1",            60,           -5.,        13.125,            0.,NA,NA,"",   778.486E-03,  -773.810E-03,  -85.1998E-03,   4.51392E-09
C:/temp/dataset/test2/14_9.odb,Step-1,Increment      1: Step Time =    1.000,"PART-1-1",            61,            5.,         11.25,            0.,NA,NA,"",   748.096E-03,  -742.948E-03,   87.6154E-03,   6.31860E-09
C:/temp/dataset/test2/14_9.odb,Step-1,Increment      1: Step Time =    1.000,"PART-1-1",            62,            3.,         11.25,            0.,NA,NA,"",   744.547E-03,  -742.650E-03,   53.1082E-03,   2.17047E-09
C:/temp/dataset/test2/14_9.odb,Step-1,Increment      1: Step Time =    1.000,"PART-1-1",            63,            1.,         11.25,            0.,NA,NA,"",   742.586E-03,  -742.353E-03,   18.6010E-03,   5.34052E-09
C:/temp/dataset/test2/14_9.odb,Step-1,Increment      1: Step Time =    1.000,"PART-1-1",            64,           -1.,         11.25,            0.,NA,NA,"",   742.225E-03,  -742.055E-03,  -15.9062E-03,   5.33989E-09
C:/temp/dataset/test2/14_9.odb,Step-1,Increment      1: Step Time =    1.000,"PART-1-1",            65,           -3.,         11.25,            0.,NA,NA,"",   743.468E-03,  -741.757E-03,  -50.4135E-03,   2.16618E-09
C:/temp/dataset/test2/14_9.odb,Step-1,Increment      1: Step Time =    1.000,"PART-1-1",            66,           -5.,         11.25,            0.,NA,NA,"",   746.307E-03,  -741.459E-03,  -84.9207E-03,   6.35302E-09
C:/temp/dataset/test2/14_9.odb,Step-1,Increment      1: Step Time =    1.000,"PART-1-1",            67,            5.,         9.375,            0.,NA,NA,"",   716.013E-03,  -710.598E-03,   87.8945E-03,   3.79535E-09
C:/temp/dataset/test2/14_9.odb,Step-1,Increment      1: Step Time =    1.000,"PART-1-1",            68,            3.,         9.375,            0.,NA,NA,"",   712.303E-03,  -710.300E-03,   53.3873E-03,   15.2136E-09
C:/temp/dataset/test2/14_9.odb,Step-1,Increment      1: Step Time =    1.000,"PART-1-1",            69,            1.,         9.375,            0.,NA,NA,"",   710.253E-03,  -710.002E-03,   18.8801E-03,   22.2912E-09
C:/temp/dataset/test2/14_9.odb,Step-1,Increment      1: Step Time =    1.000,"PART-1-1",            70,           -1.,         9.375,            0.,NA,NA,"",   709.876E-03,  -709.704E-03,  -15.6271E-03,   22.2935E-09
C:/temp/dataset/test2/14_9.odb,Step-1,Increment      1: Step Time =    1.000,"PART-1-1",            71,           -3.,         9.375,            0.,NA,NA,"",   711.176E-03,  -709.407E-03,  -50.1344E-03,   15.2115E-09
C:/temp/dataset/test2/14_9.odb,Step-1,Increment      1: Step Time =    1.000,"PART-1-1",            72,           -5.,         9.375,            0.,NA,NA,"",   714.143E-03,  -709.109E-03,  -84.6416E-03,   3.83054E-09
C:/temp/dataset/test2/14_9.odb,Step-1,Increment      1: Step Time =    1.000,"PART-1-1",            73,            5.,           7.5,            0.,NA,NA,"",   683.954E-03,  -678.247E-03,   88.1736E-03,   16.4419E-09
C:/temp/dataset/test2/14_9.odb,Step-1,Increment      1: Step Time =    1.000,"PART-1-1",            74,            3.,           7.5,            0.,NA,NA,"",   680.070E-03,  -677.949E-03,   53.6664E-03,   52.1834E-09
C:/temp/dataset/test2/14_9.odb,Step-1,Increment      1: Step Time =    1.000,"PART-1-1",            75,            1.,           7.5,            0.,NA,NA,"",   677.922E-03,  -677.652E-03,   19.1591E-03,   66.8803E-09
C:/temp/dataset/test2/14_9.odb,Step-1,Increment      1: Step Time =    1.000,"PART-1-1",            76,           -1.,           7.5,            0.,NA,NA,"",   677.528E-03,  -677.354E-03,  -15.3481E-03,   66.8844E-09
C:/temp/dataset/test2/14_9.odb,Step-1,Increment      1: Step Time =    1.000,"PART-1-1",            77,           -3.,           7.5,            0.,NA,NA,"",   678.889E-03,  -677.056E-03,  -49.8553E-03,   52.1861E-09
C:/temp/dataset/test2/14_9.odb,Step-1,Increment      1: Step Time =    1.000,"PART-1-1",            78,           -5.,           7.5,            0.,NA,NA,"",   681.996E-03,  -676.758E-03,  -84.3625E-03,   16.4107E-09
C:/temp/dataset/test2/14_9.odb,Step-1,Increment      1: Step Time =    1.000,"PART-1-1",            79,            5.,         5.625,            0.,NA,NA,"",   651.925E-03,  -645.897E-03,   88.4528E-03,   82.5445E-09
C:/temp/dataset/test2/14_9.odb,Step-1,Increment      1: Step Time =    1.000,"PART-1-1",            80,            3.,         5.625,            0.,NA,NA,"",   647.849E-03,  -645.599E-03,   53.9455E-03,   136.409E-09
C:/temp/dataset/test2/14_9.odb,Step-1,Increment      1: Step Time =    1.000,"PART-1-1",            81,            1.,         5.625,            0.,NA,NA,"",   645.594E-03,  -645.301E-03,   19.4381E-03,   162.978E-09
C:/temp/dataset/test2/14_9.odb,Step-1,Increment      1: Step Time =    1.000,"PART-1-1",            82,           -1.,         5.625,            0.,NA,NA,"",   645.179E-03,  -645.003E-03,  -15.0691E-03,   162.972E-09
C:/temp/dataset/test2/14_9.odb,Step-1,Increment      1: Step Time =    1.000,"PART-1-1",            83,           -3.,         5.625,            0.,NA,NA,"",   646.609E-03,  -644.705E-03,  -49.5761E-03,   136.400E-09
C:/temp/dataset/test2/14_9.odb,Step-1,Increment      1: Step Time =    1.000,"PART-1-1",            84,           -5.,         5.625,            0.,NA,NA,"",   649.870E-03,  -644.408E-03,  -84.0833E-03,   82.5320E-09
C:/temp/dataset/test2/14_9.odb,Step-1,Increment      1: Step Time =    1.000,"PART-1-1",            85,            5.,          3.75,            0.,NA,NA,"",   619.929E-03,  -613.546E-03,   88.7321E-03,   252.799E-09
C:/temp/dataset/test2/14_9.odb,Step-1,Increment      1: Step Time =    1.000,"PART-1-1",            86,            3.,          3.75,            0.,NA,NA,"",   615.641E-03,  -613.249E-03,   54.2246E-03,   295.575E-09
C:/temp/dataset/test2/14_9.odb,Step-1,Increment      1: Step Time =    1.000,"PART-1-1",            87,            1.,          3.75,            0.,NA,NA,"",   613.268E-03,  -612.951E-03,   19.7169E-03,   334.114E-09
C:/temp/dataset/test2/14_9.odb,Step-1,Increment      1: Step Time =    1.000,"PART-1-1",            88,           -1.,          3.75,            0.,NA,NA,"",   612.831E-03,  -612.653E-03,  -14.7903E-03,   334.043E-09
C:/temp/dataset/test2/14_9.odb,Step-1,Increment      1: Step Time =    1.000,"PART-1-1",            89,           -3.,          3.75,            0.,NA,NA,"",   614.336E-03,  -612.355E-03,  -49.2970E-03,   295.451E-09
C:/temp/dataset/test2/14_9.odb,Step-1,Increment      1: Step Time =    1.000,"PART-1-1",            90,           -5.,          3.75,            0.,NA,NA,"",   617.768E-03,  -612.057E-03,  -83.8040E-03,   252.762E-09
C:/temp/dataset/test2/14_9.odb,Step-1,Increment      1: Step Time =    1.000,"PART-1-1",            91,            5.,         1.875,            0.,NA,NA,"",   587.973E-03,  -581.196E-03,   89.0119E-03,   615.951E-09
C:/temp/dataset/test2/14_9.odb,Step-1,Increment      1: Step Time =    1.000,"PART-1-1",            92,            3.,         1.875,            0.,NA,NA,"",   583.450E-03,  -580.898E-03,   54.5037E-03,   527.345E-09
C:/temp/dataset/test2/14_9.odb,Step-1,Increment      1: Step Time =    1.000,"PART-1-1",            93,            1.,         1.875,            0.,NA,NA,"",   580.944E-03,  -580.600E-03,   19.9955E-03,   562.246E-09
C:/temp/dataset/test2/14_9.odb,Step-1,Increment      1: Step Time =    1.000,"PART-1-1",            94,           -1.,         1.875,            0.,NA,NA,"",   580.483E-03,  -580.302E-03,  -14.5118E-03,   561.821E-09
C:/temp/dataset/test2/14_9.odb,Step-1,Increment      1: Step Time =    1.000,"PART-1-1",            95,           -3.,         1.875,            0.,NA,NA,"",   582.071E-03,  -580.004E-03,  -49.0179E-03,   526.472E-09
C:/temp/dataset/test2/14_9.odb,Step-1,Increment      1: Step Time =    1.000,"PART-1-1",            96,           -5.,         1.875,            0.,NA,NA,"",   585.693E-03,  -579.706E-03,  -83.5242E-03,   615.566E-09
C:/temp/dataset/test2/14_9.odb,Step-1,Increment      1: Step Time =    1.000,"PART-1-1",            97,            5.,            0.,            0.,NA,NA,"",   556.061E-03,  -548.845E-03,   89.2925E-03,   1.24952E-06
C:/temp/dataset/test2/14_9.odb,Step-1,Increment      1: Step Time =    1.000,"PART-1-1",            98,            3.,            0.,            0.,NA,NA,"",   551.276E-03,  -548.548E-03,   54.7829E-03,   691.811E-09
C:/temp/dataset/test2/14_9.odb,Step-1,Increment      1: Step Time =    1.000,"PART-1-1",            99,            1.,            0.,            0.,NA,NA,"",   548.624E-03,  -548.250E-03,   20.2737E-03,   698.673E-09
C:/temp/dataset/test2/14_9.odb,Step-1,Increment      1: Step Time =    1.000,"PART-1-1",           100,           -1.,            0.,            0.,NA,NA,"",   548.136E-03,  -547.952E-03,  -14.2335E-03,   696.863E-09
C:/temp/dataset/test2/14_9.odb,Step-1,Increment      1: Step Time =    1.000,"PART-1-1",           101,           -3.,            0.,            0.,NA,NA,"",   549.818E-03,  -547.654E-03,  -48.7387E-03,   687.927E-09
C:/temp/dataset/test2/14_9.odb,Step-1,Increment      1: Step Time =    1.000,"PART-1-1",           102,           -5.,            0.,            0.,NA,NA,"",   553.650E-03,  -547.356E-03,  -83.2436E-03,   1.24661E-06
C:/temp/dataset/test2/14_9.odb,Step-1,Increment      1: Step Time =    1.000,"PART-1-1",           103,            5.,        -1.875,            0.,NA,NA,"",   524.202E-03,  -516.492E-03,   89.5745E-03,   2.03563E-06
C:/temp/dataset/test2/14_9.odb,Step-1,Increment      1: Step Time =    1.000,"PART-1-1",           104,            3.,        -1.875,            0.,NA,NA,"",   519.123E-03,  -516.195E-03,   55.0621E-03,   402.363E-09
C:/temp/dataset/test2/14_9.odb,Step-1,Increment      1: Step Time =    1.000,"PART-1-1",           105,            1.,        -1.875,            0.,NA,NA,"",   516.307E-03,  -515.898E-03,   20.5522E-03,   983.528E-09
C:/temp/dataset/test2/14_9.odb,Step-1,Increment      1: Step Time =    1.000,"PART-1-1",           106,           -1.,        -1.875,            0.,NA,NA,"",   515.791E-03,  -515.602E-03,  -13.9550E-03,   981.771E-09
C:/temp/dataset/test2/14_9.odb,Step-1,Increment      1: Step Time =    1.000,"PART-1-1",           107,           -3.,        -1.875,            0.,NA,NA,"",   517.579E-03,  -515.305E-03,  -48.4596E-03,   397.712E-09
C:/temp/dataset/test2/14_9.odb,Step-1,Increment      1: Step Time =    1.000,"PART-1-1",           108,           -5.,        -1.875,            0.,NA,NA,"",   521.648E-03,  -515.009E-03,  -82.9617E-03,   2.02123E-06
C:/temp/dataset/test2/14_9.odb,Step-1,Increment      1: Step Time =    1.000,"PART-1-1",           109,            5.,         -3.75,            0.,NA,NA,"",   492.402E-03,  -484.133E-03,   89.8576E-03,   2.12891E-06
C:/temp/dataset/test2/14_9.odb,Step-1,Increment      1: Step Time =    1.000,"PART-1-1",           110,            3.,         -3.75,            0.,NA,NA,"",   486.991E-03,  -483.837E-03,   55.3414E-03,   2.69959E-06
C:/temp/dataset/test2/14_9.odb,Step-1,Increment      1: Step Time =    1.000,"PART-1-1",           111,            1.,         -3.75,            0.,NA,NA,"",   483.993E-03,  -483.544E-03,   20.8328E-03,   4.50548E-06
C:/temp/dataset/test2/14_9.odb,Step-1,Increment      1: Step Time =    1.000,"PART-1-1",           112,           -1.,         -3.75,            0.,NA,NA,"",   483.448E-03,  -483.255E-03,  -13.6745E-03,   4.50568E-06
C:/temp/dataset/test2/14_9.odb,Step-1,Increment      1: Step Time =    1.000,"PART-1-1",           113,           -3.,         -3.75,            0.,NA,NA,"",   485.360E-03,  -482.962E-03,  -48.1805E-03,   2.72920E-06
C:/temp/dataset/test2/14_9.odb,Step-1,Increment      1: Step Time =    1.000,"PART-1-1",           114,           -5.,         -3.75,            0.,NA,NA,"",   489.696E-03,  -482.666E-03,  -82.6789E-03,   2.07498E-06
C:/temp/dataset/test2/14_9.odb,Step-1,Increment      1: Step Time =    1.000,"PART-1-1",           115,            5.,        -5.625,            0.,NA,NA,"",   460.669E-03,  -451.764E-03,   90.1392E-03,   1.63192E-06
C:/temp/dataset/test2/14_9.odb,Step-1,Increment      1: Step Time =    1.000,"PART-1-1",           116,            3.,        -5.625,            0.,NA,NA,"",   454.880E-03,  -451.467E-03,   55.6207E-03,   11.3890E-06
C:/temp/dataset/test2/14_9.odb,Step-1,Increment      1: Step Time =    1.000,"PART-1-1",           117,            1.,        -5.625,            0.,NA,NA,"",   451.679E-03,  -451.185E-03,   21.1212E-03,   15.2874E-06
C:/temp/dataset/test2/14_9.odb,Step-1,Increment      1: Step Time =    1.000,"PART-1-1",           118,           -1.,        -5.625,            0.,NA,NA,"",   451.112E-03,  -450.913E-03,  -13.3864E-03,   15.2385E-06
C:/temp/dataset/test2/14_9.odb,Step-1,Increment      1: Step Time =    1.000,"PART-1-1",           119,           -3.,        -5.625,            0.,NA,NA,"",   453.170E-03,  -450.631E-03,  -47.9019E-03,   11.3864E-06
C:/temp/dataset/test2/14_9.odb,Step-1,Increment      1: Step Time =    1.000,"PART-1-1",           120,           -5.,        -5.625,            0.,NA,NA,"",   457.810E-03,  -450.334E-03,  -82.3982E-03,   1.75396E-06
C:/temp/dataset/test2/14_9.odb,Step-1,Increment      1: Step Time =    1.000,"PART-1-1",           121,            5.,          -7.5,            0.,NA,NA,"",   429.012E-03,  -419.377E-03,   90.4080E-03,   16.1020E-06
C:/temp/dataset/test2/14_9.odb,Step-1,Increment      1: Step Time =    1.000,"PART-1-1",           122,            3.,          -7.5,            0.,NA,NA,"",   422.786E-03,  -419.074E-03,   55.8995E-03,   33.1191E-06
C:/temp/dataset/test2/14_9.odb,Step-1,Increment      1: Step Time =    1.000,"PART-1-1",           123,            1.,          -7.5,            0.,NA,NA,"",   419.364E-03,  -418.816E-03,   21.4302E-03,   40.5096E-06
C:/temp/dataset/test2/14_9.odb,Step-1,Increment      1: Step Time =    1.000,"PART-1-1",           124,           -1.,          -7.5,            0.,NA,NA,"",   418.787E-03,  -418.583E-03,  -13.0785E-03,   40.1761E-06
C:/temp/dataset/test2/14_9.odb,Step-1,Increment      1: Step Time =    1.000,"PART-1-1",           125,           -3.,          -7.5,            0.,NA,NA,"",   421.024E-03,  -418.322E-03,  -47.6245E-03,   32.5868E-06
C:/temp/dataset/test2/14_9.odb,Step-1,Increment      1: Step Time =    1.000,"PART-1-1",           126,           -5.,          -7.5,            0.,NA,NA,"",   426.011E-03,  -418.019E-03,  -82.1306E-03,   16.1789E-06
C:/temp/dataset/test2/14_9.odb,Step-1,Increment      1: Step Time =    1.000,"PART-1-1",           127,            5.,        -9.375,            0.,NA,NA,"",   397.440E-03,  -386.968E-03,   90.6355E-03,   57.8397E-06
C:/temp/dataset/test2/14_9.odb,Step-1,Increment      1: Step Time =    1.000,"PART-1-1",           128,            3.,        -9.375,            0.,NA,NA,"",   390.710E-03,  -386.650E-03,   56.1782E-03,   78.9960E-06
C:/temp/dataset/test2/14_9.odb,Step-1,Increment      1: Step Time =    1.000,"PART-1-1",           129,            1.,        -9.375,            0.,NA,NA,"",   387.050E-03,  -386.437E-03,   21.7857E-03,   90.1743E-06
C:/temp/dataset/test2/14_9.odb,Step-1,Increment      1: Step Time =    1.000,"PART-1-1",           130,           -1.,        -9.375,            0.,NA,NA,"",   386.478E-03,  -386.268E-03,  -12.7275E-03,   88.1760E-06
C:/temp/dataset/test2/14_9.odb,Step-1,Increment      1: Step Time =    1.000,"PART-1-1",           131,           -3.,        -9.375,            0.,NA,NA,"",   388.935E-03,  -386.042E-03,  -47.3505E-03,   75.0517E-06
C:/temp/dataset/test2/14_9.odb,Step-1,Increment      1: Step Time =    1.000,"PART-1-1",           132,           -5.,        -9.375,            0.,NA,NA,"",   394.322E-03,  -385.721E-03,  -81.9051E-03,   56.6465E-06
C:/temp/dataset/test2/14_9.odb,Step-1,Increment      1: Step Time =    1.000,"PART-1-1",           133,            5.,        -11.25,            0.,NA,NA,"",   365.990E-03,  -354.562E-03,   90.7448E-03,   160.248E-06
C:/temp/dataset/test2/14_9.odb,Step-1,Increment      1: Step Time =    1.000,"PART-1-1",           134,            3.,        -11.25,            0.,NA,NA,"",   358.678E-03,  -354.207E-03,   56.4558E-03,   158.865E-06
C:/temp/dataset/test2/14_9.odb,Step-1,Increment      1: Step Time =    1.000,"PART-1-1",           135,            1.,        -11.25,            0.,NA,NA,"",   354.755E-03,  -354.058E-03,   22.2271E-03,   168.402E-06
C:/temp/dataset/test2/14_9.odb,Step-1,Increment      1: Step Time =    1.000,"PART-1-1",           136,           -1.,        -11.25,            0.,NA,NA,"",   354.182E-03,  -353.969E-03,  -12.3026E-03,   160.341E-06
C:/temp/dataset/test2/14_9.odb,Step-1,Increment      1: Step Time =    1.000,"PART-1-1",           137,           -3.,        -11.25,            0.,NA,NA,"",   356.895E-03,  -353.776E-03,  -47.0850E-03,   141.526E-06
C:/temp/dataset/test2/14_9.odb,Step-1,Increment      1: Step Time =    1.000,"PART-1-1",           138,           -5.,        -11.25,            0.,NA,NA,"",   362.752E-03,  -353.412E-03,  -81.7835E-03,   146.765E-06
C:/temp/dataset/test2/14_9.odb,Step-1,Increment      1: Step Time =    1.000,"PART-1-1",           139,            5.,       -13.125,            0.,NA,NA,"",   334.758E-03,  -322.259E-03,   90.6187E-03,   366.371E-06
C:/temp/dataset/test2/14_9.odb,Step-1,Increment      1: Step Time =    1.000,"PART-1-1",           140,            3.,       -13.125,            0.,NA,NA,"",   326.808E-03,  -321.843E-03,   56.7527E-03,   268.560E-06
C:/temp/dataset/test2/14_9.odb,Step-1,Increment      1: Step Time =    1.000,"PART-1-1",           141,            1.,       -13.125,            0.,NA,NA,"",   322.546E-03,  -321.739E-03,   22.7928E-03,   251.126E-06
C:/temp/dataset/test2/14_9.odb,Step-1,Increment      1: Step Time =    1.000,"PART-1-1",           142,           -1.,       -13.125,            0.,NA,NA,"",   321.864E-03,  -321.648E-03,  -11.7892E-03,   224.064E-06
C:/temp/dataset/test2/14_9.odb,Step-1,Increment      1: Step Time =    1.000,"PART-1-1",           143,           -3.,       -13.125,            0.,NA,NA,"",   324.819E-03,  -321.424E-03,  -46.8401E-03,   202.078E-06
C:/temp/dataset/test2/14_9.odb,Step-1,Increment      1: Step Time =    1.000,"PART-1-1",           144,           -5.,       -13.125,            0.,NA,NA,"",   331.250E-03,  -320.974E-03,  -81.8682E-03,   305.272E-06
C:/temp/dataset/test2/14_9.odb,Step-1,Increment      1: Step Time =    1.000,"PART-1-1",           145,            5.,          -15.,            0.,NA,NA,"",   304.112E-03,  -290.523E-03,   89.8929E-03,   783.948E-06
C:/temp/dataset/test2/14_9.odb,Step-1,Increment      1: Step Time =    1.000,"PART-1-1",           146,            3.,          -15.,            0.,NA,NA,"",   295.504E-03,  -289.940E-03,   57.0701E-03,   264.652E-06
C:/temp/dataset/test2/14_9.odb,Step-1,Increment      1: Step Time =    1.000,"PART-1-1",           147,            1.,          -15.,            0.,NA,NA,"",   290.574E-03,  -289.629E-03,   23.4184E-03,   296.441E-06
C:/temp/dataset/test2/14_9.odb,Step-1,Increment      1: Step Time =    1.000,"PART-1-1",           148,           -1.,          -15.,            0.,NA,NA,"",   289.365E-03,  -289.145E-03,  -11.2771E-03,   216.582E-06
C:/temp/dataset/test2/14_9.odb,Step-1,Increment      1: Step Time =    1.000,"PART-1-1",           149,           -3.,          -15.,            0.,NA,NA,"",   292.426E-03,  -288.684E-03,  -46.6346E-03,   156.108E-06
C:/temp/dataset/test2/14_9.odb,Step-1,Increment      1: Step Time =    1.000,"PART-1-1",           150,           -5.,          -15.,            0.,NA,NA,"",   299.621E-03,  -288.106E-03,  -82.2669E-03,   501.594E-06
C:/temp/dataset/test2/14_9.odb,Step-1,Increment      1: Step Time =    1.000,"PART-1-1",           151,            5.,       -16.875,            0.,NA,NA,"",   275.190E-03,  -260.559E-03,   88.5368E-03,   1.78381E-03
C:/temp/dataset/test2/14_9.odb,Step-1,Increment      1: Step Time =    1.000,"PART-1-1",           152,            3.,       -16.875,            0.,NA,NA,"",   265.724E-03,  -259.413E-03,   57.5696E-03,   1.11806E-03
C:/temp/dataset/test2/14_9.odb,Step-1,Increment      1: Step Time =    1.000,"PART-1-1",           153,            1.,       -16.875,            0.,NA,NA,"",   258.907E-03,  -257.829E-03,   23.6071E-03,   1.06092E-03
C:/temp/dataset/test2/14_9.odb,Step-1,Increment      1: Step Time =    1.000,"PART-1-1",           154,           -1.,       -16.875,            0.,NA,NA,"",   256.178E-03,  -255.939E-03,  -11.0673E-03,   761.471E-06
C:/temp/dataset/test2/14_9.odb,Step-1,Increment      1: Step Time =    1.000,"PART-1-1",           155,           -3.,       -16.875,            0.,NA,NA,"",   259.094E-03,  -254.896E-03,  -46.4501E-03,   342.505E-06
C:/temp/dataset/test2/14_9.odb,Step-1,Increment      1: Step Time =    1.000,"PART-1-1",           156,           -5.,       -16.875,            0.,NA,NA,"",   267.422E-03,  -254.233E-03,  -82.9443E-03,   569.097E-06
C:/temp/dataset/test2/14_9.odb,Step-1,Increment      1: Step Time =    1.000,"PART-1-1",           157,            5.,        -18.75,            0.,NA,NA,"",   254.332E-03,  -239.669E-03,   85.1096E-03,   4.87329E-03
C:/temp/dataset/test2/14_9.odb,Step-1,Increment      1: Step Time =    1.000,"PART-1-1",           158,            3.,        -18.75,            0.,NA,NA,"",   238.858E-03,  -232.196E-03,   56.0221E-03,   5.20302E-03
C:/temp/dataset/test2/14_9.odb,Step-1,Increment      1: Step Time =    1.000,"PART-1-1",           159,            1.,        -18.75,            0.,NA,NA,"",   226.222E-03,  -225.157E-03,   21.9286E-03,   3.36794E-03
C:/temp/dataset/test2/14_9.odb,Step-1,Increment      1: Step Time =    1.000,"PART-1-1",           160,           -1.,        -18.75,            0.,NA,NA,"",   221.080E-03,  -220.777E-03,  -11.5805E-03,   2.33871E-03
C:/temp/dataset/test2/14_9.odb,Step-1,Increment      1: Step Time =    1.000,"PART-1-1",           161,           -3.,        -18.75,            0.,NA,NA,"",   223.837E-03,  -219.044E-03,  -46.0711E-03,   1.39557E-03
C:/temp/dataset/test2/14_9.odb,Step-1,Increment      1: Step Time =    1.000,"PART-1-1",           162,           -5.,        -18.75,            0.,NA,NA,"",   233.976E-03,  -218.598E-03,  -83.4261E-03,   164.807E-06
C:/temp/dataset/test2/14_9.odb,Step-1,Increment      1: Step Time =    1.000,"PART-1-1",           163,            5.,       -20.625,            0.,NA,NA,"",   230.604E-03,  -213.628E-03,   86.8417E-03,   9.56245E-03
C:/temp/dataset/test2/14_9.odb,Step-1,Increment      1: Step Time =    1.000,"PART-1-1",           164,            3.,       -20.625,            0.,NA,NA,"",   205.503E-03,  -199.443E-03,   49.5365E-03,   9.68555E-03
C:/temp/dataset/test2/14_9.odb,Step-1,Increment      1: Step Time =    1.000,"PART-1-1",           165,            1.,       -20.625,            0.,NA,NA,"",   188.530E-03,  -187.707E-03,   17.6039E-03,   6.50077E-03
C:/temp/dataset/test2/14_9.odb,Step-1,Increment      1: Step Time =    1.000,"PART-1-1",           166,           -1.,       -20.625,            0.,NA,NA,"",   182.369E-03,  -181.930E-03,  -12.6519E-03,   4.66845E-03
C:/temp/dataset/test2/14_9.odb,Step-1,Increment      1: Step Time =    1.000,"PART-1-1",           167,           -3.,       -20.625,            0.,NA,NA,"",   185.762E-03,  -180.268E-03,  -44.8422E-03,   3.09933E-03
C:/temp/dataset/test2/14_9.odb,Step-1,Increment      1: Step Time =    1.000,"PART-1-1",           168,           -5.,       -20.625,            0.,NA,NA,"",   198.678E-03,  -180.731E-03,  -82.5171E-03,   1.18194E-03
C:/temp/dataset/test2/14_9.odb,Step-1,Increment      1: Step Time =    1.000,"PART-1-1",           169,            5.,         -22.5,            0.,NA,NA,"",   183.498E-03,  -162.167E-03,   85.8686E-03,   6.66173E-03
C:/temp/dataset/test2/14_9.odb,Step-1,Increment      1: Step Time =    1.000,"PART-1-1",           170,            3.,         -22.5,            0.,NA,NA,"",   157.208E-03,  -151.665E-03,   41.3792E-03,   10.3857E-03
C:/temp/dataset/test2/14_9.odb,Step-1,Increment      1: Step Time =    1.000,"PART-1-1",           171,            1.,         -22.5,            0.,NA,NA,"",   143.918E-03,  -143.354E-03,   12.7377E-03,   8.78205E-03
C:/temp/dataset/test2/14_9.odb,Step-1,Increment      1: Step Time =    1.000,"PART-1-1",           172,           -1.,         -22.5,            0.,NA,NA,"",   139.721E-03,  -139.114E-03,  -13.0095E-03,   6.94186E-03
C:/temp/dataset/test2/14_9.odb,Step-1,Increment      1: Step Time =    1.000,"PART-1-1",           173,           -3.,         -22.5,            0.,NA,NA,"",   144.977E-03,  -138.869E-03,  -41.6372E-03,   5.13481E-03
C:/temp/dataset/test2/14_9.odb,Step-1,Increment      1: Step Time =    1.000,"PART-1-1",           174,           -5.,         -22.5,            0.,NA,NA,"",   161.470E-03,  -141.141E-03,  -78.4327E-03,   3.57900E-03
C:/temp/dataset/test2/14_9.odb,Step-1,Increment      1: Step Time =    1.000,"PART-1-1",           175,            5.,       -24.375,            0.,NA,NA,"",   130.361E-03,  -107.659E-03,   73.5091E-03,   8.87843E-03
C:/temp/dataset/test2/14_9.odb,Step-1,Increment      1: Step Time =    1.000,"PART-1-1",           176,            3.,       -24.375,            0.,NA,NA,"",   106.627E-03,  -100.887E-03,   34.5118E-03,   7.67279E-03
C:/temp/dataset/test2/14_9.odb,Step-1,Increment      1: Step Time =    1.000,"PART-1-1",           177,            1.,       -24.375,            0.,NA,NA,"",   97.1710E-03,  -96.7190E-03,   9.36137E-03,   9.27154E-03
C:/temp/dataset/test2/14_9.odb,Step-1,Increment      1: Step Time =    1.000,"PART-1-1",           178,           -1.,       -24.375,            0.,NA,NA,"",   95.7426E-03,  -95.0504E-03,  -11.4915E-03,   8.47349E-03
C:/temp/dataset/test2/14_9.odb,Step-1,Increment      1: Step Time =    1.000,"PART-1-1",           179,           -3.,       -24.375,            0.,NA,NA,"",   103.202E-03,  -96.9193E-03,  -35.4581E-03,   7.12292E-03
C:/temp/dataset/test2/14_9.odb,Step-1,Increment      1: Step Time =    1.000,"PART-1-1",           180,           -5.,       -24.375,            0.,NA,NA,"",   123.158E-03,  -101.739E-03,  -69.4049E-03,   6.94277E-03
C:/temp/dataset/test2/14_9.odb,Step-1,Increment      1: Step Time =    1.000,"PART-1-1",           181,            5.,        -26.25,            0.,NA,NA,"",   87.3393E-03,  -66.5818E-03,   56.5245E-03,   11.8103E-03
C:/temp/dataset/test2/14_9.odb,Step-1,Increment      1: Step Time =    1.000,"PART-1-1",           182,            3.,        -26.25,            0.,NA,NA,"",   63.3182E-03,  -58.0428E-03,   25.3027E-03,   9.13424E-03
C:/temp/dataset/test2/14_9.odb,Step-1,Increment      1: Step Time =    1.000,"PART-1-1",           183,            1.,        -26.25,            0.,NA,NA,"",   54.5506E-03,  -54.1710E-03,   6.42447E-03,   8.73078E-03
C:/temp/dataset/test2/14_9.odb,Step-1,Increment      1: Step Time =    1.000,"PART-1-1",           184,           -1.,        -26.25,            0.,NA,NA,"",   54.5111E-03,  -53.9246E-03,  -7.97492E-03,   8.82163E-03
C:/temp/dataset/test2/14_9.odb,Step-1,Increment      1: Step Time =    1.000,"PART-1-1",           185,           -3.,        -26.25,            0.,NA,NA,"",   62.7700E-03,  -57.4052E-03,  -25.3913E-03,   9.39715E-03
C:/temp/dataset/test2/14_9.odb,Step-1,Increment      1: Step Time =    1.000,"PART-1-1",           186,           -5.,        -26.25,            0.,NA,NA,"",   84.6804E-03,  -64.8506E-03,  -54.4533E-03,   10.3886E-03
C:/temp/dataset/test2/14_9.odb,Step-1,Increment      1: Step Time =    1.000,"PART-1-1",           187,            5.,       -28.125,            0.,NA,NA,"",   47.4699E-03,  -33.1908E-03,   33.9376E-03,   17.0734E-03
C:/temp/dataset/test2/14_9.odb,Step-1,Increment      1: Step Time =    1.000,"PART-1-1",           188,            3.,       -28.125,            0.,NA,NA,"",   27.3254E-03,  -23.8107E-03,   13.4062E-03,   11.2469E-03
C:/temp/dataset/test2/14_9.odb,Step-1,Increment      1: Step Time =    1.000,"PART-1-1",           189,            1.,       -28.125,            0.,NA,NA,"",   20.4094E-03,  -20.1606E-03,   3.17691E-03,   7.93534E-03
C:/temp/dataset/test2/14_9.odb,Step-1,Increment      1: Step Time =    1.000,"PART-1-1",           190,           -1.,       -28.125,            0.,NA,NA,"",   20.6259E-03,  -20.2807E-03,  -3.75761E-03,   8.18354E-03
C:/temp/dataset/test2/14_9.odb,Step-1,Increment      1: Step Time =    1.000,"PART-1-1",           191,           -3.,       -28.125,            0.,NA,NA,"",   27.3834E-03,  -23.9499E-03,  -13.2760E-03,   11.4128E-03
C:/temp/dataset/test2/14_9.odb,Step-1,Increment      1: Step Time =    1.000,"PART-1-1",           192,           -5.,       -28.125,            0.,NA,NA,"",   46.7049E-03,  -32.7558E-03,  -33.2927E-03,   16.3193E-03
C:/temp/dataset/test2/14_9.odb,Step-1,Increment      1: Step Time =    1.000,"PART-1-1",           193,            5.,          -30.,            0.,NA,NA,"",            0.,  -6.35327E-39,   11.1049E-39,   26.6037E-03
C:/temp/dataset/test2/14_9.odb,Step-1,Increment      1: Step Time =    1.000,"PART-1-1",           194,            3.,          -30.,            0.,NA,NA,"",            0.,  -7.45710E-39,   12.0682E-39,   7.26530E-03
C:/temp/dataset/test2/14_9.odb,Step-1,Increment      1: Step Time =    1.000,"PART-1-1",           195,            1.,          -30.,            0.,NA,NA,"",            0.,  -3.66535E-39,   4.55030E-39,   4.59197E-03
C:/temp/dataset/test2/14_9.odb,Step-1,Increment      1: Step Time =    1.000,"PART-1-1",           196,           -1.,          -30.,            0.,NA,NA,"",            0.,  -1.92098E-39,  -1.38202E-39,   4.82101E-03
C:/temp/dataset/test2/14_9.odb,Step-1,Increment      1: Step Time =    1.000,"PART-1-1",           197,           -3.,          -30.,            0.,NA,NA,"",            0.,  -6.02019E-39,  -8.64319E-39,   7.15993E-03
C:/temp/dataset/test2/14_9.odb,Step-1,Increment      1: Step Time =    1.000,"PART-1-1",           198,           -5.,          -30.,            0.,NA,NA,"",            0.,  -6.22876E-39,  -10.7655E-39,   26.0957E-03
C:/temp/dataset/test2/14_9.odb,Step-1,Increment      1: Step Time =    1.000,"PART-1-1",           199,            4.,           30.,            0.,NA,NA,"",       1.06844,      -1.06630,   67.5708E-03,   47.4200E-12
C:/temp/dataset/test2/14_9.odb,Step-1,Increment      1: Step Time =    1.000,"PART-1-1",           200,            3.,       29.0625,            0.,NA,NA,"",       1.05119,      -1.04998,   50.4567E-03,   48.1127E-12
C:/temp/dataset/test2/14_9.odb,Step-1,Increment      1: Step Time =    1.000,"PART-1-1",           201,            4.,        28.125,            0.,NA,NA,"",       1.03618,      -1.03395,   67.8499E-03,   46.4352E-12
C:/temp/dataset/test2/14_9.odb,Step-1,Increment      1: Step Time =    1.000,"PART-1-1",           202,            5.,       29.0625,            0.,NA,NA,"",       1.05371,      -1.05028,   84.9639E-03,   45.6615E-12
C:/temp/dataset/test2/14_9.odb,Step-1,Increment      1: Step Time =    1.000,"PART-1-1",           203,            2.,           30.,            0.,NA,NA,"",       1.06652,      -1.06601,   33.0636E-03,   46.5387E-12
C:/temp/dataset/test2/14_9.odb,Step-1,Increment      1: Step Time =    1.000,"PART-1-1",           204,            1.,       29.0625,            0.,NA,NA,"",       1.04980,      -1.04968,   15.9495E-03,   47.6687E-12
C:/temp/dataset/test2/14_9.odb,Step-1,Increment      1: Step Time =    1.000,"PART-1-1",           205,            2.,        28.125,            0.,NA,NA,"",       1.03419,      -1.03366,   33.3427E-03,   49.1792E-12
C:/temp/dataset/test2/14_9.odb,Step-1,Increment      1: Step Time =    1.000,"PART-1-1",           206,            0.,           30.,            0.,NA,NA,"",       1.06571,      -1.06571,  -1.44365E-03,   45.2276E-12
C:/temp/dataset/test2/14_9.odb,Step-1,Increment      1: Step Time =    1.000,"PART-1-1",           207,           -1.,       29.0625,            0.,NA,NA,"",       1.04955,      -1.04938,  -18.5577E-03,   47.1918E-12
C:/temp/dataset/test2/14_9.odb,Step-1,Increment      1: Step Time =    1.000,"PART-1-1",           208,            0.,        28.125,            0.,NA,NA,"",       1.03336,      -1.03336,  -1.16455E-03,   49.6115E-12
C:/temp/dataset/test2/14_9.odb,Step-1,Increment      1: Step Time =    1.000,"PART-1-1",           209,           -2.,           30.,            0.,NA,NA,"",       1.06602,      -1.06541,  -35.9509E-03,   45.4238E-12
C:/temp/dataset/test2/14_9.odb,Step-1,Increment      1: Step Time =    1.000,"PART-1-1",           210,           -3.,       29.0625,            0.,NA,NA,"",       1.05043,      -1.04909,  -53.0649E-03,   46.9948E-12
C:/temp/dataset/test2/14_9.odb,Step-1,Increment      1: Step Time =    1.000,"PART-1-1",           211,           -2.,        28.125,            0.,NA,NA,"",       1.03368,      -1.03306,  -35.6718E-03,   49.0435E-12
C:/temp/dataset/test2/14_9.odb,Step-1,Increment      1: Step Time =    1.000,"PART-1-1",           212,           -4.,           30.,            0.,NA,NA,"",       1.06744,      -1.06511,  -70.4581E-03,   45.8551E-12
C:/temp/dataset/test2/14_9.odb,Step-1,Increment      1: Step Time =    1.000,"PART-1-1",           213,           -5.,       29.0625,            0.,NA,NA,"",       1.05244,      -1.04879,  -87.5721E-03,   47.1576E-12
C:/temp/dataset/test2/14_9.odb,Step-1,Increment      1: Step Time =    1.000,"PART-1-1",           214,           -4.,        28.125,            0.,NA,NA,"",       1.03514,      -1.03276,  -70.1790E-03,   48.1049E-12
C:/temp/dataset/test2/14_9.odb,Step-1,Increment      1: Step Time =    1.000,"PART-1-1",           215,            3.,       27.1875,            0.,NA,NA,"",       1.01889,      -1.01763,   50.7358E-03,   49.3655E-12
C:/temp/dataset/test2/14_9.odb,Step-1,Increment      1: Step Time =    1.000,"PART-1-1",           216,            4.,         26.25,            0.,NA,NA,"",       1.00392,      -1.00160,   68.1290E-03,   46.0605E-12
C:/temp/dataset/test2/14_9.odb,Step-1,Increment      1: Step Time =    1.000,"PART-1-1",           217,            5.,       27.1875,            0.,NA,NA,"",       1.02149,      -1.01793,   85.2430E-03,   43.8909E-12
C:/temp/dataset/test2/14_9.odb,Step-1,Increment      1: Step Time =    1.000,"PART-1-1",           218,            1.,       27.1875,            0.,NA,NA,"",       1.01746,      -1.01733,   16.2286E-03,   52.4474E-12
C:/temp/dataset/test2/14_9.odb,Step-1,Increment      1: Step Time =    1.000,"PART-1-1",           219,            2.,         26.25,            0.,NA,NA,"",       1.00187,      -1.00131,   33.6218E-03,   52.7626E-12
C:/temp/dataset/test2/14_9.odb,Step-1,Increment      1: Step Time =    1.000,"PART-1-1",           220,           -1.,       27.1875,            0.,NA,NA,"",       1.01720,      -1.01703,  -18.2786E-03,   52.5977E-12
C:/temp/dataset/test2/14_9.odb,Step-1,Increment      1: Step Time =    1.000,"PART-1-1",           221,            0.,         26.25,            0.,NA,NA,"",       1.00101,      -1.00101,  -885.450E-06,   55.5421E-12
C:/temp/dataset/test2/14_9.odb,Step-1,Increment      1: Step Time =    1.000,"PART-1-1",           222,           -3.,       27.1875,            0.,NA,NA,"",       1.01811,      -1.01674,  -52.7858E-03,   50.4340E-12
C:/temp/dataset/test2/14_9.odb,Step-1,Increment      1: Step Time =    1.000,"PART-1-1",           223,           -2.,         26.25,            0.,NA,NA,"",       1.00134,      -1.00071,  -35.3927E-03,   53.8574E-12
C:/temp/dataset/test2/14_9.odb,Step-1,Increment      1: Step Time =    1.000,"PART-1-1",           224,           -5.,       27.1875,            0.,NA,NA,"",       1.02018,      -1.01644,  -87.2930E-03,   46.0547E-12
C:/temp/dataset/test2/14_9.odb,Step-1,Increment      1: Step Time =    1.000,"PART-1-1",           225,           -4.,         26.25,            0.,NA,NA,"",       1.00285,      -1.00041,  -69.8999E-03,   48.3418E-12
C:/temp/dataset/test2/14_9.odb,Step-1,Increment      1: Step Time =    1.000,"PART-1-1",           226,            3.,       25.3125,            0.,NA,NA,"",   986.599E-03,  -985.279E-03,   51.0149E-03,   53.7143E-12
C:/temp/dataset/test2/14_9.odb,Step-1,Increment      1: Step Time =    1.000,"PART-1-1",           227,            4.,        24.375,            0.,NA,NA,"",   971.664E-03,  -969.253E-03,   68.4081E-03,   48.8937E-12
C:/temp/dataset/test2/14_9.odb,Step-1,Increment      1: Step Time =    1.000,"PART-1-1",           228,            5.,       25.3125,            0.,NA,NA,"",   989.280E-03,  -985.577E-03,   85.5221E-03,   42.1342E-12
C:/temp/dataset/test2/14_9.odb,Step-1,Increment      1: Step Time =    1.000,"PART-1-1",           229,            1.,       25.3125,            0.,NA,NA,"",   985.120E-03,  -984.981E-03,   16.5077E-03,   61.5604E-12
C:/temp/dataset/test2/14_9.odb,Step-1,Increment      1: Step Time =    1.000,"PART-1-1",           230,            2.,        24.375,            0.,NA,NA,"",   969.548E-03,  -968.955E-03,   33.9009E-03,   63.6882E-12
C:/temp/dataset/test2/14_9.odb,Step-1,Increment      1: Step Time =    1.000,"PART-1-1",           231,           -1.,       25.3125,            0.,NA,NA,"",   984.848E-03,  -984.684E-03,  -17.9995E-03,   62.5656E-12
C:/temp/dataset/test2/14_9.odb,Step-1,Increment      1: Step Time =    1.000,"PART-1-1",           232,            0.,        24.375,            0.,NA,NA,"",   968.657E-03,  -968.657E-03,  -606.348E-06,   69.8679E-12
C:/temp/dataset/test2/14_9.odb,Step-1,Increment      1: Step Time =    1.000,"PART-1-1",           233,           -3.,       25.3125,            0.,NA,NA,"",   985.785E-03,  -984.386E-03,  -52.5067E-03,   56.3145E-12
C:/temp/dataset/test2/14_9.odb,Step-1,Increment      1: Step Time =    1.000,"PART-1-1",           234,           -2.,        24.375,            0.,NA,NA,"",   968.996E-03,  -968.360E-03,  -35.1136E-03,   65.7500E-12
C:/temp/dataset/test2/14_9.odb,Step-1,Increment      1: Step Time =    1.000,"PART-1-1",           235,           -5.,       25.3125,            0.,NA,NA,"",   987.928E-03,  -984.088E-03,  -87.0139E-03,   44.4967E-12
C:/temp/dataset/test2/14_9.odb,Step-1,Increment      1: Step Time =    1.000,"PART-1-1",           236,           -4.,        24.375,            0.,NA,NA,"",   970.562E-03,  -968.062E-03,  -69.6208E-03,   52.0172E-12
C:/temp/dataset/test2/14_9.odb,Step-1,Increment      1: Step Time =    1.000,"PART-1-1",           237,            3.,       23.4375,            0.,NA,NA,"",   954.308E-03,  -952.929E-03,   51.2940E-03,   78.1270E-12
C:/temp/dataset/test2/14_9.odb,Step-1,Increment      1: Step Time =    1.000,"PART-1-1",           238,            4.,          22.5,            0.,NA,NA,"",   939.417E-03,  -936.902E-03,   68.6872E-03,   70.9225E-12
C:/temp/dataset/test2/14_9.odb,Step-1,Increment      1: Step Time =    1.000,"PART-1-1",           239,            5.,       23.4375,            0.,NA,NA,"",   957.080E-03,  -953.226E-03,   85.8012E-03,   43.5788E-12
C:/temp/dataset/test2/14_9.odb,Step-1,Increment      1: Step Time =    1.000,"PART-1-1",           240,            1.,       23.4375,            0.,NA,NA,"",   952.779E-03,  -952.631E-03,   16.7868E-03,   96.2492E-12
C:/temp/dataset/test2/14_9.odb,Step-1,Increment      1: Step Time =    1.000,"PART-1-1",           241,            2.,          22.5,            0.,NA,NA,"",   937.228E-03,  -936.604E-03,   34.1800E-03,   110.715E-12
C:/temp/dataset/test2/14_9.odb,Step-1,Increment      1: Step Time =    1.000,"PART-1-1",           242,           -1.,       23.4375,            0.,NA,NA,"",   952.498E-03,  -952.333E-03,  -17.7204E-03,   97.5320E-12
C:/temp/dataset/test2/14_9.odb,Step-1,Increment      1: Step Time =    1.000,"PART-1-1",           243,            0.,          22.5,            0.,NA,NA,"",   936.307E-03,  -936.307E-03,  -327.246E-06,   122.614E-12
C:/temp/dataset/test2/14_9.odb,Step-1,Increment      1: Step Time =    1.000,"PART-1-1",           244,           -3.,       23.4375,            0.,NA,NA,"",   953.467E-03,  -952.035E-03,  -52.2276E-03,   82.1491E-12
C:/temp/dataset/test2/14_9.odb,Step-1,Increment      1: Step Time =    1.000,"PART-1-1",           245,           -2.,          22.5,            0.,NA,NA,"",   936.657E-03,  -936.009E-03,  -34.8345E-03,   112.710E-12
C:/temp/dataset/test2/14_9.odb,Step-1,Increment      1: Step Time =    1.000,"PART-1-1",           246,           -5.,       23.4375,            0.,NA,NA,"",   955.682E-03,  -951.738E-03,  -86.7348E-03,   48.9303E-12
C:/temp/dataset/test2/14_9.odb,Step-1,Increment      1: Step Time =    1.000,"PART-1-1",           247,           -4.,          22.5,            0.,NA,NA,"",   938.277E-03,  -935.711E-03,  -69.3417E-03,   76.1052E-12
C:/temp/dataset/test2/14_9.odb,Step-1,Increment      1: Step Time =    1.000,"PART-1-1",           248,            3.,       21.5625,            0.,NA,NA,"",   922.022E-03,  -920.578E-03,   51.5731E-03,   172.214E-12
C:/temp/dataset/test2/14_9.odb,Step-1,Increment      1: Step Time =    1.000,"PART-1-1",           249,            4.,        20.625,            0.,NA,NA,"",   907.177E-03,  -904.552E-03,   68.9663E-03,   160.936E-12
C:/temp/dataset/test2/14_9.odb,Step-1,Increment      1: Step Time =    1.000,"PART-1-1",           250,            5.,       21.5625,            0.,NA,NA,"",   924.890E-03,  -920.876E-03,   86.0803E-03,   83.9142E-12
C:/temp/dataset/test2/14_9.odb,Step-1,Increment      1: Step Time =    1.000,"PART-1-1",           251,            1.,       21.5625,            0.,NA,NA,"",   920.439E-03,  -920.280E-03,   17.0659E-03,   209.184E-12
C:/temp/dataset/test2/14_9.odb,Step-1,Increment      1: Step Time =    1.000,"PART-1-1",           252,            2.,        20.625,            0.,NA,NA,"",   904.910E-03,  -904.254E-03,   34.4591E-03,   249.380E-12
C:/temp/dataset/test2/14_9.odb,Step-1,Increment      1: Step Time =    1.000,"PART-1-1",           253,           -1.,       21.5625,            0.,NA,NA,"",   920.148E-03,  -919.983E-03,  -17.4413E-03,   209.876E-12
C:/temp/dataset/test2/14_9.odb,Step-1,Increment      1: Step Time =    1.000,"PART-1-1",           254,            0.,        20.625,            0.,NA,NA,"",   903.956E-03,  -903.956E-03,  -48.1431E-06,   273.065E-12
C:/temp/dataset/test2/14_9.odb,Step-1,Increment      1: Step Time =    1.000,"PART-1-1",           255,           -3.,       21.5625,            0.,NA,NA,"",   921.151E-03,  -919.685E-03,  -51.9485E-03,   176.398E-12
C:/temp/dataset/test2/14_9.odb,Step-1,Increment      1: Step Time =    1.000,"PART-1-1",           256,           -2.,        20.625,            0.,NA,NA,"",   904.319E-03,  -903.659E-03,  -34.5554E-03,   250.410E-12
C:/temp/dataset/test2/14_9.odb,Step-1,Increment      1: Step Time =    1.000,"PART-1-1",           257,           -5.,       21.5625,            0.,NA,NA,"",   923.443E-03,  -919.387E-03,  -86.4557E-03,   97.3681E-12
C:/temp/dataset/test2/14_9.odb,Step-1,Increment      1: Step Time =    1.000,"PART-1-1",           258,           -4.,        20.625,            0.,NA,NA,"",   905.997E-03,  -903.361E-03,  -69.0626E-03,   168.790E-12
C:/temp/dataset/test2/14_9.odb,Step-1,Increment      1: Step Time =    1.000,"PART-1-1",           259,            3.,       19.6875,            0.,NA,NA,"",   889.740E-03,  -888.228E-03,   51.8522E-03,   400.048E-12
C:/temp/dataset/test2/14_9.odb,Step-1,Increment      1: Step Time =    1.000,"PART-1-1",           260,            4.,         18.75,            0.,NA,NA,"",   874.946E-03,  -872.201E-03,   69.2454E-03,   395.046E-12
C:/temp/dataset/test2/14_9.odb,Step-1,Increment      1: Step Time =    1.000,"PART-1-1",           261,            5.,       19.6875,            0.,NA,NA,"",   892.712E-03,  -888.525E-03,   86.3594E-03,   268.221E-12
C:/temp/dataset/test2/14_9.odb,Step-1,Increment      1: Step Time =    1.000,"PART-1-1",           262,            1.,       19.6875,            0.,NA,NA,"",   888.099E-03,  -887.930E-03,   17.3450E-03,   465.203E-12
C:/temp/dataset/test2/14_9.odb,Step-1,Increment      1: Step Time =    1.000,"PART-1-1",           263,            2.,         18.75,            0.,NA,NA,"",   872.595E-03,  -871.903E-03,   34.7382E-03,   541.316E-12
C:/temp/dataset/test2/14_9.odb,Step-1,Increment      1: Step Time =    1.000,"PART-1-1",           264,           -1.,       19.6875,            0.,NA,NA,"",   887.798E-03,  -887.632E-03,  -17.1622E-03,   465.086E-12
C:/temp/dataset/test2/14_9.odb,Step-1,Increment      1: Step Time =    1.000,"PART-1-1",           265,            0.,         18.75,            0.,NA,NA,"",   871.606E-03,  -871.606E-03,   230.960E-06,   587.136E-12
C:/temp/dataset/test2/14_9.odb,Step-1,Increment      1: Step Time =    1.000,"PART-1-1",           266,           -3.,       19.6875,            0.,NA,NA,"",   888.838E-03,  -887.334E-03,  -51.6694E-03,   404.000E-12
C:/temp/dataset/test2/14_9.odb,Step-1,Increment      1: Step Time =    1.000,"PART-1-1",           267,           -2.,         18.75,            0.,NA,NA,"",   871.982E-03,  -871.308E-03,  -34.2763E-03,   541.326E-12
C:/temp/dataset/test2/14_9.odb,Step-1,Increment      1: Step Time =    1.000,"PART-1-1",           268,           -5.,       19.6875,            0.,NA,NA,"",   891.213E-03,  -887.037E-03,  -86.1766E-03,   286.423E-12
C:/temp/dataset/test2/14_9.odb,Step-1,Increment      1: Step Time =    1.000,"PART-1-1",           269,           -4.,         18.75,            0.,NA,NA,"",   873.722E-03,  -871.010E-03,  -68.7835E-03,   405.651E-12
C:/temp/dataset/test2/14_9.odb,Step-1,Increment      1: Step Time =    1.000,"PART-1-1",           270,            3.,       17.8125,            0.,NA,NA,"",   857.463E-03,  -855.877E-03,   52.1313E-03,   823.138E-12
C:/temp/dataset/test2/14_9.odb,Step-1,Increment      1: Step Time =    1.000,"PART-1-1",           271,            4.,        16.875,            0.,NA,NA,"",   842.723E-03,  -839.851E-03,   69.5245E-03,   872.965E-12
C:/temp/dataset/test2/14_9.odb,Step-1,Increment      1: Step Time =    1.000,"PART-1-1",           272,            5.,       17.8125,            0.,NA,NA,"",   860.547E-03,  -856.175E-03,   86.6386E-03,   744.887E-12
C:/temp/dataset/test2/14_9.odb,Step-1,Increment      1: Step Time =    1.000,"PART-1-1",           273,            1.,       17.8125,            0.,NA,NA,"",   855.761E-03,  -855.579E-03,   17.6241E-03,   912.534E-12
C:/temp/dataset/test2/14_9.odb,Step-1,Increment      1: Step Time =    1.000,"PART-1-1",           274,            2.,        16.875,            0.,NA,NA,"",   840.283E-03,  -839.553E-03,   35.0173E-03,   1.01548E-09
C:/temp/dataset/test2/14_9.odb,Step-1,Increment      1: Step Time =    1.000,"PART-1-1",           275,           -1.,       17.8125,            0.,NA,NA,"",   855.448E-03,  -855.282E-03,  -16.8831E-03,   911.569E-12
C:/temp/dataset/test2/14_9.odb,Step-1,Increment      1: Step Time =    1.000,"PART-1-1",           276,            0.,        16.875,            0.,NA,NA,"",   839.255E-03,  -839.255E-03,   510.063E-06,   1.09380E-09
C:/temp/dataset/test2/14_9.odb,Step-1,Increment      1: Step Time =    1.000,"PART-1-1",           277,           -3.,       17.8125,            0.,NA,NA,"",   856.527E-03,  -854.984E-03,  -51.3903E-03,   826.941E-12
C:/temp/dataset/test2/14_9.odb,Step-1,Increment      1: Step Time =    1.000,"PART-1-1",           278,           -2.,        16.875,            0.,NA,NA,"",   839.646E-03,  -838.958E-03,  -33.9972E-03,   1.01446E-09
C:/temp/dataset/test2/14_9.odb,Step-1,Increment      1: Step Time =    1.000,"PART-1-1",           279,           -5.,       17.8125,            0.,NA,NA,"",   858.992E-03,  -854.686E-03,  -85.8975E-03,   766.774E-12
C:/temp/dataset/test2/14_9.odb,Step-1,Increment      1: Step Time =    1.000,"PART-1-1",           280,           -4.,        16.875,            0.,NA,NA,"",   841.453E-03,  -838.660E-03,  -68.5044E-03,   886.650E-12
C:/temp/dataset/test2/14_9.odb,Step-1,Increment      1: Step Time =    1.000,"PART-1-1",           281,            3.,       15.9375,            0.,NA,NA,"",   825.193E-03,  -823.527E-03,   52.4104E-03,   1.40326E-09
C:/temp/dataset/test2/14_9.odb,Step-1,Increment      1: Step Time =    1.000,"PART-1-1",           282,            4.,           15.,            0.,NA,NA,"",   810.512E-03,  -807.500E-03,   69.8036E-03,   1.65609E-09
C:/temp/dataset/test2/14_9.odb,Step-1,Increment      1: Step Time =    1.000,"PART-1-1",           283,            5.,       15.9375,            0.,NA,NA,"",   828.397E-03,  -823.824E-03,   86.9177E-03,   1.73443E-09
C:/temp/dataset/test2/14_9.odb,Step-1,Increment      1: Step Time =    1.000,"PART-1-1",           284,            1.,       15.9375,            0.,NA,NA,"",   823.424E-03,  -823.229E-03,   17.9032E-03,   1.46647E-09
C:/temp/dataset/test2/14_9.odb,Step-1,Increment      1: Step Time =    1.000,"PART-1-1",           285,            2.,           15.,            0.,NA,NA,"",   807.974E-03,  -807.202E-03,   35.2964E-03,   1.50673E-09
C:/temp/dataset/test2/14_9.odb,Step-1,Increment      1: Step Time =    1.000,"PART-1-1",           286,           -1.,       15.9375,            0.,NA,NA,"",   823.099E-03,  -822.931E-03,  -16.6040E-03,   1.46447E-09
C:/temp/dataset/test2/14_9.odb,Step-1,Increment      1: Step Time =    1.000,"PART-1-1",           287,            0.,           15.,            0.,NA,NA,"",   806.905E-03,  -806.905E-03,   789.168E-06,   1.62878E-09
C:/temp/dataset/test2/14_9.odb,Step-1,Increment      1: Step Time =    1.000,"PART-1-1",           288,           -3.,       15.9375,            0.,NA,NA,"",   824.220E-03,  -822.633E-03,  -51.1112E-03,   1.40692E-09
C:/temp/dataset/test2/14_9.odb,Step-1,Increment      1: Step Time =    1.000,"PART-1-1",           289,           -2.,           15.,            0.,NA,NA,"",   807.311E-03,  -806.607E-03,  -33.7181E-03,   1.50441E-09
C:/temp/dataset/test2/14_9.odb,Step-1,Increment      1: Step Time =    1.000,"PART-1-1",           290,           -5.,       15.9375,            0.,NA,NA,"",   826.781E-03,  -822.336E-03,  -85.6184E-03,   1.75996E-09
C:/temp/dataset/test2/14_9.odb,Step-1,Increment      1: Step Time =    1.000,"PART-1-1",           291,           -4.,           15.,            0.,NA,NA,"",   809.191E-03,  -806.309E-03,  -68.2253E-03,   1.67345E-09
C:/temp/dataset/test2/14_9.odb,Step-1,Increment      1: Step Time =    1.000,"PART-1-1",           292,            3.,       14.0625,            0.,NA,NA,"",   792.929E-03,  -791.176E-03,   52.6895E-03,   1.68852E-09
C:/temp/dataset/test2/14_9.odb,Step-1,Increment      1: Step Time =    1.000,"PART-1-1",           293,            4.,        13.125,            0.,NA,NA,"",   778.311E-03,  -775.150E-03,   70.0827E-03,   2.53559E-09
C:/temp/dataset/test2/14_9.odb,Step-1,Increment      1: Step Time =    1.000,"PART-1-1",           294,            5.,       14.0625,            0.,NA,NA,"",   796.263E-03,  -791.474E-03,   87.1968E-03,   3.38881E-09
C:/temp/dataset/test2/14_9.odb,Step-1,Increment      1: Step Time =    1.000,"PART-1-1",           295,            1.,       14.0625,            0.,NA,NA,"",   791.087E-03,  -790.878E-03,   18.1823E-03,   1.67939E-09
C:/temp/dataset/test2/14_9.odb,Step-1,Increment      1: Step Time =    1.000,"PART-1-1",           296,            2.,        13.125,            0.,NA,NA,"",   775.668E-03,  -774.852E-03,   35.5755E-03,   1.38861E-09
C:/temp/dataset/test2/14_9.odb,Step-1,Increment      1: Step Time =    1.000,"PART-1-1",           297,           -1.,       14.0625,            0.,NA,NA,"",   790.749E-03,  -790.581E-03,  -16.3249E-03,   1.67574E-09
C:/temp/dataset/test2/14_9.odb,Step-1,Increment      1: Step Time =    1.000,"PART-1-1",           298,            0.,        13.125,            0.,NA,NA,"",   774.555E-03,  -774.554E-03,   1.06827E-03,   1.77277E-09
C:/temp/dataset/test2/14_9.odb,Step-1,Increment      1: Step Time =    1.000,"PART-1-1",           299,           -3.,       14.0625,            0.,NA,NA,"",   791.916E-03,  -790.283E-03,  -50.8321E-03,   1.69173E-09
C:/temp/dataset/test2/14_9.odb,Step-1,Increment      1: Step Time =    1.000,"PART-1-1",           300,           -2.,        13.125,            0.,NA,NA,"",   774.978E-03,  -774.257E-03,  -33.4389E-03,   1.38373E-09
C:/temp/dataset/test2/14_9.odb,Step-1,Increment      1: Step Time =    1.000,"PART-1-1",           301,           -5.,       14.0625,            0.,NA,NA,"",   794.581E-03,  -789.985E-03,  -85.3393E-03,   3.41799E-09
C:/temp/dataset/test2/14_9.odb,Step-1,Increment      1: Step Time =    1.000,"PART-1-1",           302,           -4.,        13.125,            0.,NA,NA,"",   776.936E-03,  -773.959E-03,  -67.9462E-03,   2.55781E-09
C:/temp/dataset/test2/14_9.odb,Step-1,Increment      1: Step Time =    1.000,"PART-1-1",           303,            3.,       12.1875,            0.,NA,NA,"",   760.672E-03,  -758.826E-03,   52.9686E-03,   917.461E-12
C:/temp/dataset/test2/14_9.odb,Step-1,Increment      1: Step Time =    1.000,"PART-1-1",           304,            4.,         11.25,            0.,NA,NA,"",   746.124E-03,  -742.799E-03,   70.3618E-03,   2.82920E-09
C:/temp/dataset/test2/14_9.odb,Step-1,Increment      1: Step Time =    1.000,"PART-1-1",           305,            5.,       12.1875,            0.,NA,NA,"",   764.147E-03,  -759.123E-03,   87.4758E-03,   5.23225E-09
C:/temp/dataset/test2/14_9.odb,Step-1,Increment      1: Step Time =    1.000,"PART-1-1",           306,            1.,       12.1875,            0.,NA,NA,"",   758.752E-03,  -758.528E-03,   18.4614E-03,   2.92512E-09
C:/temp/dataset/test2/14_9.odb,Step-1,Increment      1: Step Time =    1.000,"PART-1-1",           307,            2.,         11.25,            0.,NA,NA,"",   743.367E-03,  -742.501E-03,   35.8546E-03,   3.74990E-09
C:/temp/dataset/test2/14_9.odb,Step-1,Increment      1: Step Time =    1.000,"PART-1-1",           308,           -1.,       12.1875,            0.,NA,NA,"",   758.400E-03,  -758.230E-03,  -16.0458E-03,   2.92312E-09
C:/temp/dataset/test2/14_9.odb,Step-1,Increment      1: Step Time =    1.000,"PART-1-1",           309,            0.,         11.25,            0.,NA,NA,"",   742.205E-03,  -742.204E-03,   1.34738E-03,   5.10752E-09
C:/temp/dataset/test2/14_9.odb,Step-1,Increment      1: Step Time =    1.000,"PART-1-1",           310,           -3.,       12.1875,            0.,NA,NA,"",   759.616E-03,  -757.932E-03,  -50.5530E-03,   913.862E-12
C:/temp/dataset/test2/14_9.odb,Step-1,Increment      1: Step Time =    1.000,"PART-1-1",           311,           -2.,         11.25,            0.,NA,NA,"",   742.647E-03,  -741.906E-03,  -33.1598E-03,   3.74934E-09
C:/temp/dataset/test2/14_9.odb,Step-1,Increment      1: Step Time =    1.000,"PART-1-1",           312,           -5.,       12.1875,            0.,NA,NA,"",   762.395E-03,  -757.635E-03,  -85.0602E-03,   5.26497E-09
C:/temp/dataset/test2/14_9.odb,Step-1,Increment      1: Step Time =    1.000,"PART-1-1",           313,           -4.,         11.25,            0.,NA,NA,"",   744.689E-03,  -741.608E-03,  -67.6671E-03,   2.85689E-09
C:/temp/dataset/test2/14_9.odb,Step-1,Increment      1: Step Time =    1.000,"PART-1-1",           314,            3.,       10.3125,            0.,NA,NA,"",   728.424E-03,  -726.475E-03,   53.2477E-03,   8.68833E-09
C:/temp/dataset/test2/14_9.odb,Step-1,Increment      1: Step Time =    1.000,"PART-1-1",           315,            4.,         9.375,            0.,NA,NA,"",   713.952E-03,  -710.449E-03,   70.6409E-03,   6.96514E-09
C:/temp/dataset/test2/14_9.odb,Step-1,Increment      1: Step Time =    1.000,"PART-1-1",           316,            5.,       10.3125,            0.,NA,NA,"",   732.052E-03,  -726.773E-03,   87.7549E-03,   4.63565E-09
C:/temp/dataset/test2/14_9.odb,Step-1,Increment      1: Step Time =    1.000,"PART-1-1",           317,            1.,       10.3125,            0.,NA,NA,"",   726.419E-03,  -726.177E-03,   18.7405E-03,   13.7165E-09
C:/temp/dataset/test2/14_9.odb,Step-1,Increment      1: Step Time =    1.000,"PART-1-1",           318,            2.,         9.375,            0.,NA,NA,"",   711.070E-03,  -710.151E-03,   36.1337E-03,   17.6873E-09
C:/temp/dataset/test2/14_9.odb,Step-1,Increment      1: Step Time =    1.000,"PART-1-1",           319,           -1.,       10.3125,            0.,NA,NA,"",   726.051E-03,  -725.880E-03,  -15.7667E-03,   13.7181E-09
C:/temp/dataset/test2/14_9.odb,Step-1,Increment      1: Step Time =    1.000,"PART-1-1",           320,            0.,         9.375,            0.,NA,NA,"",   709.855E-03,  -709.853E-03,   1.62647E-03,   20.6905E-09
C:/temp/dataset/test2/14_9.odb,Step-1,Increment      1: Step Time =    1.000,"PART-1-1",           321,           -3.,       10.3125,            0.,NA,NA,"",   727.321E-03,  -725.582E-03,  -50.2739E-03,   8.68474E-09
C:/temp/dataset/test2/14_9.odb,Step-1,Increment      1: Step Time =    1.000,"PART-1-1",           322,           -2.,         9.375,            0.,NA,NA,"",   710.317E-03,  -709.555E-03,  -32.8807E-03,   17.6909E-09
C:/temp/dataset/test2/14_9.odb,Step-1,Increment      1: Step Time =    1.000,"PART-1-1",           323,           -5.,       10.3125,            0.,NA,NA,"",   730.223E-03,  -725.284E-03,  -84.7811E-03,   4.67071E-09
C:/temp/dataset/test2/14_9.odb,Step-1,Increment      1: Step Time =    1.000,"PART-1-1",           324,           -4.,         9.375,            0.,NA,NA,"",   712.452E-03,  -709.258E-03,  -67.3880E-03,   6.96860E-09
C:/temp/dataset/test2/14_9.odb,Step-1,Increment      1: Step Time =    1.000,"PART-1-1",           325,            3.,        8.4375,            0.,NA,NA,"",   696.185E-03,  -694.125E-03,   53.5268E-03,   33.7489E-09
C:/temp/dataset/test2/14_9.odb,Step-1,Increment      1: Step Time =    1.000,"PART-1-1",           326,            4.,           7.5,            0.,NA,NA,"",   681.797E-03,  -678.098E-03,   70.9200E-03,   29.0143E-09
C:/temp/dataset/test2/14_9.odb,Step-1,Increment      1: Step Time =    1.000,"PART-1-1",           327,            5.,        8.4375,            0.,NA,NA,"",   699.980E-03,  -694.422E-03,   88.0340E-03,   7.16000E-09
C:/temp/dataset/test2/14_9.odb,Step-1,Increment      1: Step Time =    1.000,"PART-1-1",           328,            1.,        8.4375,            0.,NA,NA,"",   694.087E-03,  -693.827E-03,   19.0196E-03,   44.5313E-09
C:/temp/dataset/test2/14_9.odb,Step-1,Increment      1: Step Time =    1.000,"PART-1-1",           329,            2.,           7.5,            0.,NA,NA,"",   678.778E-03,  -677.800E-03,   36.4128E-03,   54.6455E-09
C:/temp/dataset/test2/14_9.odb,Step-1,Increment      1: Step Time =    1.000,"PART-1-1",           330,           -1.,        8.4375,            0.,NA,NA,"",   693.702E-03,  -693.529E-03,  -15.4876E-03,   44.5346E-09
C:/temp/dataset/test2/14_9.odb,Step-1,Increment      1: Step Time =    1.000,"PART-1-1",           331,            0.,           7.5,            0.,NA,NA,"",   677.505E-03,  -677.503E-03,   1.90552E-03,   61.4058E-09
C:/temp/dataset/test2/14_9.odb,Step-1,Increment      1: Step Time =    1.000,"PART-1-1",           332,           -3.,        8.4375,            0.,NA,NA,"",   695.032E-03,  -693.231E-03,  -49.9948E-03,   33.7478E-09
C:/temp/dataset/test2/14_9.odb,Step-1,Increment      1: Step Time =    1.000,"PART-1-1",           333,           -2.,           7.5,            0.,NA,NA,"",   677.989E-03,  -677.205E-03,  -32.6017E-03,   54.6516E-09
C:/temp/dataset/test2/14_9.odb,Step-1,Increment      1: Step Time =    1.000,"PART-1-1",           334,           -5.,        8.4375,            0.,NA,NA,"",   698.067E-03,  -692.934E-03,  -84.5021E-03,   7.12754E-09
C:/temp/dataset/test2/14_9.odb,Step-1,Increment      1: Step Time =    1.000,"PART-1-1",           335,           -4.,           7.5,            0.,NA,NA,"",   680.226E-03,  -676.907E-03,  -67.1089E-03,   29.0056E-09
C:/temp/dataset/test2/14_9.odb,Step-1,Increment      1: Step Time =    1.000,"PART-1-1",           336,            3.,        6.5625,            0.,NA,NA,"",   663.958E-03,  -661.774E-03,   53.8059E-03,   93.8808E-09
C:/temp/dataset/test2/14_9.odb,Step-1,Increment      1: Step Time =    1.000,"PART-1-1",           337,            4.,         5.625,            0.,NA,NA,"",   649.661E-03,  -645.748E-03,   71.1992E-03,   88.1107E-09
C:/temp/dataset/test2/14_9.odb,Step-1,Increment      1: Step Time =    1.000,"PART-1-1",           338,            5.,        6.5625,            0.,NA,NA,"",   667.936E-03,  -662.072E-03,   88.3132E-03,   50.3014E-09
C:/temp/dataset/test2/14_9.odb,Step-1,Increment      1: Step Time =    1.000,"PART-1-1",           339,            1.,        6.5625,            0.,NA,NA,"",   661.758E-03,  -661.476E-03,   19.2986E-03,   114.359E-09
C:/temp/dataset/test2/14_9.odb,Step-1,Increment      1: Step Time =    1.000,"PART-1-1",           340,            2.,         5.625,            0.,NA,NA,"",   646.492E-03,  -645.450E-03,   36.6918E-03,   134.891E-09
C:/temp/dataset/test2/14_9.odb,Step-1,Increment      1: Step Time =    1.000,"PART-1-1",           341,           -1.,        6.5625,            0.,NA,NA,"",   661.353E-03,  -661.178E-03,  -15.2086E-03,   114.357E-09
C:/temp/dataset/test2/14_9.odb,Step-1,Increment      1: Step Time =    1.000,"PART-1-1",           342,            0.,         5.625,            0.,NA,NA,"",   645.156E-03,  -645.152E-03,   2.18447E-03,   148.736E-09
C:/temp/dataset/test2/14_9.odb,Step-1,Increment      1: Step Time =    1.000,"PART-1-1",           343,           -3.,        6.5625,            0.,NA,NA,"",   662.748E-03,  -660.881E-03,  -49.7157E-03,   93.8720E-09
C:/temp/dataset/test2/14_9.odb,Step-1,Increment      1: Step Time =    1.000,"PART-1-1",           344,           -2.,         5.625,            0.,NA,NA,"",   645.664E-03,  -644.854E-03,  -32.3226E-03,   134.890E-09
C:/temp/dataset/test2/14_9.odb,Step-1,Increment      1: Step Time =    1.000,"PART-1-1",           345,           -5.,        6.5625,            0.,NA,NA,"",   665.930E-03,  -660.583E-03,  -84.2229E-03,   50.2743E-09
C:/temp/dataset/test2/14_9.odb,Step-1,Increment      1: Step Time =    1.000,"PART-1-1",           346,           -4.,         5.625,            0.,NA,NA,"",   648.012E-03,  -644.556E-03,  -66.8297E-03,   88.0956E-09
C:/temp/dataset/test2/14_9.odb,Step-1,Increment      1: Step Time =    1.000,"PART-1-1",           347,            3.,        4.6875,            0.,NA,NA,"",   631.743E-03,  -629.424E-03,   54.0851E-03,   213.918E-09
C:/temp/dataset/test2/14_9.odb,Step-1,Increment      1: Step Time =    1.000,"PART-1-1",           348,            4.,          3.75,            0.,NA,NA,"",   617.548E-03,  -613.398E-03,   71.4784E-03,   217.046E-09
C:/temp/dataset/test2/14_9.odb,Step-1,Increment      1: Step Time =    1.000,"PART-1-1",           349,            5.,        4.6875,            0.,NA,NA,"",   635.923E-03,  -629.721E-03,   88.5924E-03,   168.081E-09
C:/temp/dataset/test2/14_9.odb,Step-1,Increment      1: Step Time =    1.000,"PART-1-1",           350,            1.,        4.6875,            0.,NA,NA,"",   629.430E-03,  -629.126E-03,   19.5775E-03,   246.061E-09
C:/temp/dataset/test2/14_9.odb,Step-1,Increment      1: Step Time =    1.000,"PART-1-1",           351,            2.,          3.75,            0.,NA,NA,"",   614.213E-03,  -613.100E-03,   36.9707E-03,   278.586E-09
C:/temp/dataset/test2/14_9.odb,Step-1,Increment      1: Step Time =    1.000,"PART-1-1",           352,           -1.,        4.6875,            0.,NA,NA,"",   629.005E-03,  -628.828E-03,  -14.9297E-03,   246.015E-09
C:/temp/dataset/test2/14_9.odb,Step-1,Increment      1: Step Time =    1.000,"PART-1-1",           353,            0.,          3.75,            0.,NA,NA,"",   612.807E-03,  -612.802E-03,   2.46324E-03,   303.539E-09
C:/temp/dataset/test2/14_9.odb,Step-1,Increment      1: Step Time =    1.000,"PART-1-1",           354,           -3.,        4.6875,            0.,NA,NA,"",   630.471E-03,  -628.530E-03,  -49.4366E-03,   213.832E-09
C:/temp/dataset/test2/14_9.odb,Step-1,Increment      1: Step Time =    1.000,"PART-1-1",           355,           -2.,          3.75,            0.,NA,NA,"",   613.341E-03,  -612.504E-03,  -32.0437E-03,   278.498E-09
C:/temp/dataset/test2/14_9.odb,Step-1,Increment      1: Step Time =    1.000,"PART-1-1",           356,           -5.,        4.6875,            0.,NA,NA,"",   633.816E-03,  -628.232E-03,  -83.9437E-03,   168.032E-09
C:/temp/dataset/test2/14_9.odb,Step-1,Increment      1: Step Time =    1.000,"PART-1-1",           357,           -4.,          3.75,            0.,NA,NA,"",   615.812E-03,  -612.206E-03,  -66.5504E-03,   216.963E-09
C:/temp/dataset/test2/14_9.odb,Step-1,Increment      1: Step Time =    1.000,"PART-1-1",           358,            3.,        2.8125,            0.,NA,NA,"",   599.543E-03,  -597.074E-03,   54.3642E-03,   404.860E-09
C:/temp/dataset/test2/14_9.odb,Step-1,Increment      1: Step Time =    1.000,"PART-1-1",           359,            4.,         1.875,            0.,NA,NA,"",   585.461E-03,  -581.047E-03,   71.7580E-03,   450.230E-09
C:/temp/dataset/test2/14_9.odb,Step-1,Increment      1: Step Time =    1.000,"PART-1-1",           360,            5.,        2.8125,            0.,NA,NA,"",   603.946E-03,  -597.371E-03,   88.8719E-03,   431.734E-09
C:/temp/dataset/test2/14_9.odb,Step-1,Increment      1: Step Time =    1.000,"PART-1-1",           361,            1.,        2.8125,            0.,NA,NA,"",   597.106E-03,  -596.776E-03,   19.8562E-03,   440.056E-09
C:/temp/dataset/test2/14_9.odb,Step-1,Increment      1: Step Time =    1.000,"PART-1-1",           362,            2.,         1.875,            0.,NA,NA,"",   581.943E-03,  -580.749E-03,   37.2495E-03,   469.639E-09
C:/temp/dataset/test2/14_9.odb,Step-1,Increment      1: Step Time =    1.000,"PART-1-1",           363,           -1.,        2.8125,            0.,NA,NA,"",   596.657E-03,  -596.477E-03,  -14.6510E-03,   439.780E-09
C:/temp/dataset/test2/14_9.odb,Step-1,Increment      1: Step Time =    1.000,"PART-1-1",           364,            0.,         1.875,            0.,NA,NA,"",   580.458E-03,  -580.451E-03,   2.74169E-03,   508.970E-09
C:/temp/dataset/test2/14_9.odb,Step-1,Increment      1: Step Time =    1.000,"PART-1-1",           365,           -3.,        2.8125,            0.,NA,NA,"",   598.202E-03,  -596.179E-03,  -49.1575E-03,   404.345E-09
C:/temp/dataset/test2/14_9.odb,Step-1,Increment      1: Step Time =    1.000,"PART-1-1",           366,           -2.,         1.875,            0.,NA,NA,"",   581.022E-03,  -580.153E-03,  -31.7649E-03,   469.080E-09
C:/temp/dataset/test2/14_9.odb,Step-1,Increment      1: Step Time =    1.000,"PART-1-1",           367,           -5.,        2.8125,            0.,NA,NA,"",   601.726E-03,  -595.882E-03,  -83.6641E-03,   431.433E-09
C:/temp/dataset/test2/14_9.odb,Step-1,Increment      1: Step Time =    1.000,"PART-1-1",           368,           -4.,         1.875,            0.,NA,NA,"",   583.630E-03,  -579.855E-03,  -66.2709E-03,   449.787E-09
C:/temp/dataset/test2/14_9.odb,Step-1,Increment      1: Step Time =    1.000,"PART-1-1",           369,            3.,     937.5E-03,            0.,NA,NA,"",   567.361E-03,  -564.723E-03,   54.6433E-03,   592.101E-09
C:/temp/dataset/test2/14_9.odb,Step-1,Increment      1: Step Time =    1.000,"PART-1-1",           370,            4.,            0.,            0.,NA,NA,"",   553.405E-03,  -548.696E-03,   72.0379E-03,   771.447E-09
C:/temp/dataset/test2/14_9.odb,Step-1,Increment      1: Step Time =    1.000,"PART-1-1",           371,            5.,     937.5E-03,            0.,NA,NA,"",   572.011E-03,  -565.020E-03,   89.1521E-03,   919.820E-09
C:/temp/dataset/test2/14_9.odb,Step-1,Increment      1: Step Time =    1.000,"PART-1-1",           372,            1.,     937.5E-03,            0.,NA,NA,"",   564.784E-03,  -564.425E-03,   20.1346E-03,   602.920E-09
C:/temp/dataset/test2/14_9.odb,Step-1,Increment      1: Step Time =    1.000,"PART-1-1",           373,            2.,            0.,            0.,NA,NA,"",   549.681E-03,  -548.399E-03,   37.5281E-03,   563.145E-09
C:/temp/dataset/test2/14_9.odb,Step-1,Increment      1: Step Time =    1.000,"PART-1-1",           374,           -1.,     937.5E-03,            0.,NA,NA,"",   564.310E-03,  -564.127E-03,  -14.3726E-03,   601.734E-09
C:/temp/dataset/test2/14_9.odb,Step-1,Increment      1: Step Time =    1.000,"PART-1-1",           375,            0.,            0.,            0.,NA,NA,"",   548.109E-03,  -548.101E-03,   3.01984E-03,   636.852E-09
C:/temp/dataset/test2/14_9.odb,Step-1,Increment      1: Step Time =    1.000,"PART-1-1",           376,           -3.,     937.5E-03,            0.,NA,NA,"",   565.943E-03,  -563.829E-03,  -48.8783E-03,   589.733E-09
C:/temp/dataset/test2/14_9.odb,Step-1,Increment      1: Step Time =    1.000,"PART-1-1",           377,           -2.,            0.,            0.,NA,NA,"",   548.707E-03,  -547.803E-03,  -31.4863E-03,   561.059E-09
C:/temp/dataset/test2/14_9.odb,Step-1,Increment      1: Step Time =    1.000,"PART-1-1",           378,           -5.,     937.5E-03,            0.,NA,NA,"",   569.667E-03,  -563.531E-03,  -83.3840E-03,   918.014E-09
C:/temp/dataset/test2/14_9.odb,Step-1,Increment      1: Step Time =    1.000,"PART-1-1",           379,           -4.,            0.,            0.,NA,NA,"",   551.468E-03,  -547.505E-03,  -65.9910E-03,   769.376E-09
C:/temp/dataset/test2/14_9.odb,Step-1,Increment      1: Step Time =    1.000,"PART-1-1",           380,            3.,    -937.5E-03,            0.,NA,NA,"",   535.197E-03,  -532.372E-03,   54.9225E-03,   453.159E-09
C:/temp/dataset/test2/14_9.odb,Step-1,Increment      1: Step Time =    1.000,"PART-1-1",           381,            4.,        -1.875,            0.,NA,NA,"",   521.383E-03,  -516.343E-03,   72.3183E-03,   996.477E-09
C:/temp/dataset/test2/14_9.odb,Step-1,Increment      1: Step Time =    1.000,"PART-1-1",           382,            5.,    -937.5E-03,            0.,NA,NA,"",   540.124E-03,  -532.669E-03,   89.4333E-03,   1.60311E-06
C:/temp/dataset/test2/14_9.odb,Step-1,Increment      1: Step Time =    1.000,"PART-1-1",           383,            1.,    -937.5E-03,            0.,NA,NA,"",   532.465E-03,  -532.074E-03,   20.4128E-03,   644.518E-09
C:/temp/dataset/test2/14_9.odb,Step-1,Increment      1: Step Time =    1.000,"PART-1-1",           384,            2.,        -1.875,            0.,NA,NA,"",   517.429E-03,  -516.046E-03,   37.8068E-03,   610.959E-09
C:/temp/dataset/test2/14_9.odb,Step-1,Increment      1: Step Time =    1.000,"PART-1-1",           385,           -1.,    -937.5E-03,            0.,NA,NA,"",   531.963E-03,  -531.777E-03,  -14.0944E-03,   642.092E-09
C:/temp/dataset/test2/14_9.odb,Step-1,Increment      1: Step Time =    1.000,"PART-1-1",           386,            0.,        -1.875,            0.,NA,NA,"",   515.761E-03,  -515.750E-03,   3.29822E-03,   958.714E-09
C:/temp/dataset/test2/14_9.odb,Step-1,Increment      1: Step Time =    1.000,"PART-1-1",           387,           -3.,    -937.5E-03,            0.,NA,NA,"",   533.696E-03,  -531.479E-03,  -48.5991E-03,   447.041E-09
C:/temp/dataset/test2/14_9.odb,Step-1,Increment      1: Step Time =    1.000,"PART-1-1",           388,           -2.,        -1.875,            0.,NA,NA,"",   516.398E-03,  -515.454E-03,  -31.2077E-03,   613.091E-09
C:/temp/dataset/test2/14_9.odb,Step-1,Increment      1: Step Time =    1.000,"PART-1-1",           389,           -5.,    -937.5E-03,            0.,NA,NA,"",   537.644E-03,  -531.182E-03,  -83.1028E-03,   1.59431E-06
C:/temp/dataset/test2/14_9.odb,Step-1,Increment      1: Step Time =    1.000,"PART-1-1",           390,           -4.,        -1.875,            0.,NA,NA,"",   519.331E-03,  -515.157E-03,  -65.7107E-03,   990.625E-09
C:/temp/dataset/test2/14_9.odb,Step-1,Increment      1: Step Time =    1.000,"PART-1-1",           391,            3.,       -2.8125,            0.,NA,NA,"",   503.055E-03,  -500.017E-03,   55.2018E-03,   1.35833E-06
C:/temp/dataset/test2/14_9.odb,Step-1,Increment      1: Step Time =    1.000,"PART-1-1",           392,            4.,         -3.75,            0.,NA,NA,"",   489.400E-03,  -483.985E-03,   72.5986E-03,   1.32274E-06
C:/temp/dataset/test2/14_9.odb,Step-1,Increment      1: Step Time =    1.000,"PART-1-1",           393,            5.,       -2.8125,            0.,NA,NA,"",   508.294E-03,  -500.313E-03,   89.7161E-03,   1.98045E-06
C:/temp/dataset/test2/14_9.odb,Step-1,Increment      1: Step Time =    1.000,"PART-1-1",           394,            1.,       -2.8125,            0.,NA,NA,"",   500.150E-03,  -499.722E-03,   20.6919E-03,   2.63478E-06
C:/temp/dataset/test2/14_9.odb,Step-1,Increment      1: Step Time =    1.000,"PART-1-1",           395,            2.,         -3.75,            0.,NA,NA,"",   485.187E-03,  -483.690E-03,   38.0865E-03,   3.46778E-06
C:/temp/dataset/test2/14_9.odb,Step-1,Increment      1: Step Time =    1.000,"PART-1-1",           396,           -1.,       -2.8125,            0.,NA,NA,"",   499.619E-03,  -499.428E-03,  -13.8153E-03,   2.63551E-06
C:/temp/dataset/test2/14_9.odb,Step-1,Increment      1: Step Time =    1.000,"PART-1-1",           397,            0.,         -3.75,            0.,NA,NA,"",   483.413E-03,  -483.400E-03,   3.57911E-03,   4.22166E-06
C:/temp/dataset/test2/14_9.odb,Step-1,Increment      1: Step Time =    1.000,"PART-1-1",           398,           -3.,       -2.8125,            0.,NA,NA,"",   501.466E-03,  -499.133E-03,  -48.3200E-03,   1.37490E-06
C:/temp/dataset/test2/14_9.odb,Step-1,Increment      1: Step Time =    1.000,"PART-1-1",           399,           -2.,         -3.75,            0.,NA,NA,"",   484.098E-03,  -483.109E-03,  -30.9281E-03,   3.48153E-06
C:/temp/dataset/test2/14_9.odb,Step-1,Increment      1: Step Time =    1.000,"PART-1-1",           400,           -5.,       -2.8125,            0.,NA,NA,"",   505.665E-03,  -498.836E-03,  -82.8202E-03,   1.95087E-06
C:/temp/dataset/test2/14_9.odb,Step-1,Increment      1: Step Time =    1.000,"PART-1-1",           401,           -4.,         -3.75,            0.,NA,NA,"",   487.228E-03,  -482.814E-03,  -65.4306E-03,   1.34261E-06
C:/temp/dataset/test2/14_9.odb,Step-1,Increment      1: Step Time =    1.000,"PART-1-1",           402,            3.,       -4.6875,            0.,NA,NA,"",   470.934E-03,  -467.654E-03,   55.4811E-03,   7.09209E-06
C:/temp/dataset/test2/14_9.odb,Step-1,Increment      1: Step Time =    1.000,"PART-1-1",           403,            4.,        -5.625,            0.,NA,NA,"",   457.457E-03,  -451.615E-03,   72.8763E-03,   5.82874E-06
C:/temp/dataset/test2/14_9.odb,Step-1,Increment      1: Step Time =    1.000,"PART-1-1",           404,            5.,       -4.6875,            0.,NA,NA,"",   476.527E-03,  -467.951E-03,   89.9993E-03,   432.819E-09
C:/temp/dataset/test2/14_9.odb,Step-1,Increment      1: Step Time =    1.000,"PART-1-1",           405,            1.,       -4.6875,            0.,NA,NA,"",   467.836E-03,  -467.365E-03,   20.9753E-03,   9.88779E-06
C:/temp/dataset/test2/14_9.odb,Step-1,Increment      1: Step Time =    1.000,"PART-1-1",           406,            2.,        -5.625,            0.,NA,NA,"",   452.952E-03,  -451.324E-03,   38.3703E-03,   12.3591E-06
C:/temp/dataset/test2/14_9.odb,Step-1,Increment      1: Step Time =    1.000,"PART-1-1",           407,           -1.,       -4.6875,            0.,NA,NA,"",   467.279E-03,  -467.083E-03,  -13.5321E-03,   9.86077E-06
C:/temp/dataset/test2/14_9.odb,Step-1,Increment      1: Step Time =    1.000,"PART-1-1",           408,            0.,        -5.625,            0.,NA,NA,"",   451.066E-03,  -451.049E-03,   3.86887E-03,   14.0624E-06
C:/temp/dataset/test2/14_9.odb,Step-1,Increment      1: Step Time =    1.000,"PART-1-1",           409,           -3.,       -4.6875,            0.,NA,NA,"",   469.260E-03,  -466.795E-03,  -48.0410E-03,   7.07675E-06
C:/temp/dataset/test2/14_9.odb,Step-1,Increment      1: Step Time =    1.000,"PART-1-1",           410,           -2.,        -5.625,            0.,NA,NA,"",   451.815E-03,  -450.774E-03,  -30.6448E-03,   12.3417E-06
C:/temp/dataset/test2/14_9.odb,Step-1,Increment      1: Step Time =    1.000,"PART-1-1",           411,           -5.,       -4.6875,            0.,NA,NA,"",   473.744E-03,  -466.498E-03,  -82.5375E-03,   418.120E-09
C:/temp/dataset/test2/14_9.odb,Step-1,Increment      1: Step Time =    1.000,"PART-1-1",           412,           -4.,        -5.625,            0.,NA,NA,"",   455.170E-03,  -450.483E-03,  -65.1536E-03,   5.84390E-06
C:/temp/dataset/test2/14_9.odb,Step-1,Increment      1: Step Time =    1.000,"PART-1-1",           413,            3.,       -6.5625,            0.,NA,NA,"",   438.831E-03,  -435.274E-03,   55.7603E-03,   22.2250E-06
C:/temp/dataset/test2/14_9.odb,Step-1,Increment      1: Step Time =    1.000,"PART-1-1",           414,            4.,          -7.5,            0.,NA,NA,"",   425.556E-03,  -419.223E-03,   73.1440E-03,   20.0793E-06
C:/temp/dataset/test2/14_9.odb,Step-1,Increment      1: Step Time =    1.000,"PART-1-1",           415,            5.,       -6.5625,            0.,NA,NA,"",   444.831E-03,  -435.574E-03,   90.2770E-03,   9.11987E-06
C:/temp/dataset/test2/14_9.odb,Step-1,Increment      1: Step Time =    1.000,"PART-1-1",           416,            1.,       -6.5625,            0.,NA,NA,"",   435.522E-03,  -435.002E-03,   21.2715E-03,   27.8105E-06
C:/temp/dataset/test2/14_9.odb,Step-1,Increment      1: Step Time =    1.000,"PART-1-1",           417,            2.,          -7.5,            0.,NA,NA,"",   420.721E-03,  -418.940E-03,   38.6657E-03,   33.4728E-06
C:/temp/dataset/test2/14_9.odb,Step-1,Increment      1: Step Time =    1.000,"PART-1-1",           418,           -1.,       -6.5625,            0.,NA,NA,"",   434.948E-03,  -434.746E-03,  -13.2365E-03,   27.5981E-06
C:/temp/dataset/test2/14_9.odb,Step-1,Increment      1: Step Time =    1.000,"PART-1-1",           419,            0.,          -7.5,            0.,NA,NA,"",   418.721E-03,  -418.700E-03,   4.18217E-03,   36.9157E-06
C:/temp/dataset/test2/14_9.odb,Step-1,Increment      1: Step Time =    1.000,"PART-1-1",           420,           -3.,       -6.5625,            0.,NA,NA,"",   437.090E-03,  -434.473E-03,  -47.7628E-03,   21.9104E-06
C:/temp/dataset/test2/14_9.odb,Step-1,Increment      1: Step Time =    1.000,"PART-1-1",           421,           -2.,          -7.5,            0.,NA,NA,"",   419.557E-03,  -418.458E-03,  -30.3510E-03,   33.0310E-06
C:/temp/dataset/test2/14_9.odb,Step-1,Increment      1: Step Time =    1.000,"PART-1-1",           422,           -5.,       -6.5625,            0.,NA,NA,"",   441.898E-03,  -434.174E-03,  -82.2609E-03,   9.12205E-06
C:/temp/dataset/test2/14_9.odb,Step-1,Increment      1: Step Time =    1.000,"PART-1-1",           423,           -4.,          -7.5,            0.,NA,NA,"",   423.177E-03,  -418.173E-03,  -64.8874E-03,   19.8826E-06
C:/temp/dataset/test2/14_9.odb,Step-1,Increment      1: Step Time =    1.000,"PART-1-1",           424,            3.,       -8.4375,            0.,NA,NA,"",   406.746E-03,  -402.867E-03,   56.0390E-03,   55.8378E-06
C:/temp/dataset/test2/14_9.odb,Step-1,Increment      1: Step Time =    1.000,"PART-1-1",           425,            4.,        -9.375,            0.,NA,NA,"",   393.699E-03,  -386.800E-03,   73.3826E-03,   54.5689E-06
C:/temp/dataset/test2/14_9.odb,Step-1,Increment      1: Step Time =    1.000,"PART-1-1",           426,            5.,       -8.4375,            0.,NA,NA,"",   413.215E-03,  -403.175E-03,   90.5313E-03,   37.3853E-06
C:/temp/dataset/test2/14_9.odb,Step-1,Increment      1: Step Time =    1.000,"PART-1-1",           427,            1.,       -8.4375,            0.,NA,NA,"",   403.207E-03,  -402.628E-03,   21.5991E-03,   64.8523E-06
C:/temp/dataset/test2/14_9.odb,Step-1,Increment      1: Step Time =    1.000,"PART-1-1",           428,            2.,        -9.375,            0.,NA,NA,"",   388.493E-03,  -386.532E-03,   38.9877E-03,   75.2453E-06
C:/temp/dataset/test2/14_9.odb,Step-1,Increment      1: Step Time =    1.000,"PART-1-1",           429,           -1.,       -8.4375,            0.,NA,NA,"",   402.630E-03,  -402.423E-03,  -12.9110E-03,   63.5993E-06
C:/temp/dataset/test2/14_9.odb,Step-1,Increment      1: Step Time =    1.000,"PART-1-1",           430,            0.,        -9.375,            0.,NA,NA,"",   386.380E-03,  -386.354E-03,   4.54677E-03,   81.1068E-06
C:/temp/dataset/test2/14_9.odb,Step-1,Increment      1: Step Time =    1.000,"PART-1-1",           431,           -3.,       -8.4375,            0.,NA,NA,"",   404.972E-03,  -402.178E-03,  -47.4867E-03,   53.3768E-06
C:/temp/dataset/test2/14_9.odb,Step-1,Increment      1: Step Time =    1.000,"PART-1-1",           432,           -2.,        -9.375,            0.,NA,NA,"",   387.333E-03,  -386.167E-03,  -30.0345E-03,   72.8270E-06
C:/temp/dataset/test2/14_9.odb,Step-1,Increment      1: Step Time =    1.000,"PART-1-1",           433,           -5.,       -8.4375,            0.,NA,NA,"",   410.151E-03,  -401.868E-03,  -82.0088E-03,   36.5275E-06
C:/temp/dataset/test2/14_9.odb,Step-1,Increment      1: Step Time =    1.000,"PART-1-1",           434,           -4.,        -9.375,            0.,NA,NA,"",   391.268E-03,  -385.890E-03,  -64.6501E-03,   52.4745E-06
C:/temp/dataset/test2/14_9.odb,Step-1,Increment      1: Step Time =    1.000,"PART-1-1",           435,            3.,      -10.3125,            0.,NA,NA,"",   374.685E-03,  -370.429E-03,   56.3162E-03,   116.981E-06
C:/temp/dataset/test2/14_9.odb,Step-1,Increment      1: Step Time =    1.000,"PART-1-1",           436,            4.,        -11.25,            0.,NA,NA,"",   361.915E-03,  -354.360E-03,   73.5584E-03,   124.869E-06
C:/temp/dataset/test2/14_9.odb,Step-1,Increment      1: Step Time =    1.000,"PART-1-1",           437,            5.,      -10.3125,            0.,NA,NA,"",   381.696E-03,  -370.760E-03,   90.7128E-03,   109.680E-06
C:/temp/dataset/test2/14_9.odb,Step-1,Increment      1: Step Time =    1.000,"PART-1-1",           438,            1.,      -10.3125,            0.,NA,NA,"",   370.897E-03,  -370.245E-03,   21.9912E-03,   127.445E-06
C:/temp/dataset/test2/14_9.odb,Step-1,Increment      1: Step Time =    1.000,"PART-1-1",           439,            2.,        -11.25,            0.,NA,NA,"",   356.294E-03,  -354.113E-03,   39.3642E-03,   143.657E-06
C:/temp/dataset/test2/14_9.odb,Step-1,Increment      1: Step Time =    1.000,"PART-1-1",           440,           -1.,      -10.3125,            0.,NA,NA,"",   370.330E-03,  -370.118E-03,  -12.5270E-03,   122.219E-06
C:/temp/dataset/test2/14_9.odb,Step-1,Increment      1: Step Time =    1.000,"PART-1-1",           441,            0.,        -11.25,            0.,NA,NA,"",   354.053E-03,  -354.017E-03,   5.00347E-03,   148.971E-06
C:/temp/dataset/test2/14_9.odb,Step-1,Increment      1: Step Time =    1.000,"PART-1-1",           442,           -3.,      -10.3125,            0.,NA,NA,"",   372.912E-03,  -369.910E-03,  -47.2163E-03,   107.008E-06
C:/temp/dataset/test2/14_9.odb,Step-1,Increment      1: Step Time =    1.000,"PART-1-1",           443,           -2.,        -11.25,            0.,NA,NA,"",   355.135E-03,  -353.893E-03,  -29.6789E-03,   132.015E-06
C:/temp/dataset/test2/14_9.odb,Step-1,Increment      1: Step Time =    1.000,"PART-1-1",           444,           -5.,      -10.3125,            0.,NA,NA,"",   378.522E-03,  -369.572E-03,  -81.8252E-03,   101.049E-06
C:/temp/dataset/test2/14_9.odb,Step-1,Increment      1: Step Time =    1.000,"PART-1-1",           445,           -4.,        -11.25,            0.,NA,NA,"",   359.442E-03,  -353.612E-03,  -64.4751E-03,   114.435E-06
C:/temp/dataset/test2/14_9.odb,Step-1,Increment      1: Step Time =    1.000,"PART-1-1",           446,            3.,      -12.1875,            0.,NA,NA,"",   342.705E-03,  -337.999E-03,   56.5990E-03,   209.169E-06
C:/temp/dataset/test2/14_9.odb,Step-1,Increment      1: Step Time =    1.000,"PART-1-1",           447,            4.,       -13.125,            0.,NA,NA,"",   330.308E-03,  -322.004E-03,   73.5982E-03,   243.888E-06
C:/temp/dataset/test2/14_9.odb,Step-1,Increment      1: Step Time =    1.000,"PART-1-1",           448,            5.,      -12.1875,            0.,NA,NA,"",   350.341E-03,  -338.389E-03,   90.7257E-03,   259.818E-06
C:/temp/dataset/test2/14_9.odb,Step-1,Increment      1: Step Time =    1.000,"PART-1-1",           449,            1.,      -12.1875,            0.,NA,NA,"",   338.630E-03,  -337.882E-03,   22.4922E-03,   202.762E-06
C:/temp/dataset/test2/14_9.odb,Step-1,Increment      1: Step Time =    1.000,"PART-1-1",           450,            2.,       -13.125,            0.,NA,NA,"",   324.225E-03,  -321.769E-03,   39.8337E-03,   213.010E-06
C:/temp/dataset/test2/14_9.odb,Step-1,Increment      1: Step Time =    1.000,"PART-1-1",           451,           -1.,      -12.1875,            0.,NA,NA,"",   338.033E-03,  -337.818E-03,  -12.0553E-03,   186.433E-06
C:/temp/dataset/test2/14_9.odb,Step-1,Increment      1: Step Time =    1.000,"PART-1-1",           452,            0.,       -13.125,            0.,NA,NA,"",   321.752E-03,  -321.703E-03,   5.57854E-03,   213.938E-06
C:/temp/dataset/test2/14_9.odb,Step-1,Increment      1: Step Time =    1.000,"PART-1-1",           453,           -3.,      -12.1875,            0.,NA,NA,"",   340.874E-03,  -337.624E-03,  -46.9600E-03,   169.230E-06
C:/temp/dataset/test2/14_9.odb,Step-1,Increment      1: Step Time =    1.000,"PART-1-1",           454,           -2.,       -13.125,            0.,NA,NA,"",   322.892E-03,  -321.561E-03,  -29.2806E-03,   180.200E-06
C:/temp/dataset/test2/14_9.odb,Step-1,Increment      1: Step Time =    1.000,"PART-1-1",           455,           -5.,      -12.1875,            0.,NA,NA,"",   347.000E-03,  -337.222E-03,  -81.7939E-03,   223.692E-06
C:/temp/dataset/test2/14_9.odb,Step-1,Increment      1: Step Time =    1.000,"PART-1-1",           456,           -4.,       -13.125,            0.,NA,NA,"",   327.625E-03,  -321.231E-03,  -64.4096E-03,   205.964E-06
C:/temp/dataset/test2/14_9.odb,Step-1,Increment      1: Step Time =    1.000,"PART-1-1",           457,            3.,      -14.0625,            0.,NA,NA,"",   311.035E-03,  -305.787E-03,   56.8946E-03,   254.182E-06
C:/temp/dataset/test2/14_9.odb,Step-1,Increment      1: Step Time =    1.000,"PART-1-1",           458,            4.,          -15.,            0.,NA,NA,"",   299.283E-03,  -290.121E-03,   73.4848E-03,   387.643E-06
C:/temp/dataset/test2/14_9.odb,Step-1,Increment      1: Step Time =    1.000,"PART-1-1",           459,            5.,      -14.0625,            0.,NA,NA,"",   319.308E-03,  -306.263E-03,   90.3377E-03,   562.840E-06
C:/temp/dataset/test2/14_9.odb,Step-1,Increment      1: Step Time =    1.000,"PART-1-1",           460,            1.,      -14.0625,            0.,NA,NA,"",   306.517E-03,  -305.644E-03,   23.1128E-03,   238.858E-06
C:/temp/dataset/test2/14_9.odb,Step-1,Increment      1: Step Time =    1.000,"PART-1-1",           461,            2.,          -15.,            0.,NA,NA,"",   292.592E-03,  -289.787E-03,   40.4120E-03,   218.315E-06
C:/temp/dataset/test2/14_9.odb,Step-1,Increment      1: Step Time =    1.000,"PART-1-1",           462,           -1.,      -14.0625,            0.,NA,NA,"",   305.662E-03,  -305.445E-03,  -11.5165E-03,   193.218E-06
C:/temp/dataset/test2/14_9.odb,Step-1,Increment      1: Step Time =    1.000,"PART-1-1",           463,            0.,          -15.,            0.,NA,NA,"",   289.472E-03,  -289.406E-03,   6.17516E-03,   247.425E-06
C:/temp/dataset/test2/14_9.odb,Step-1,Increment      1: Step Time =    1.000,"PART-1-1",           464,           -3.,      -14.0625,            0.,NA,NA,"",   308.696E-03,  -305.138E-03,  -46.7363E-03,   172.226E-06
C:/temp/dataset/test2/14_9.odb,Step-1,Increment      1: Step Time =    1.000,"PART-1-1",           465,           -2.,          -15.,            0.,NA,NA,"",   290.358E-03,  -288.917E-03,  -28.8892E-03,   148.989E-06
C:/temp/dataset/test2/14_9.odb,Step-1,Increment      1: Step Time =    1.000,"PART-1-1",           466,           -5.,      -14.0625,            0.,NA,NA,"",   315.474E-03,  -304.622E-03,  -82.0314E-03,   398.887E-06
C:/temp/dataset/test2/14_9.odb,Step-1,Increment      1: Step Time =    1.000,"PART-1-1",           467,           -4.,          -15.,            0.,NA,NA,"",   295.556E-03,  -288.436E-03,  -64.4808E-03,   288.518E-06
C:/temp/dataset/test2/14_9.odb,Step-1,Increment      1: Step Time =    1.000,"PART-1-1",           468,            3.,      -15.9375,            0.,NA,NA,"",   280.326E-03,  -274.404E-03,   57.3133E-03,   314.326E-06
C:/temp/dataset/test2/14_9.odb,Step-1,Increment      1: Step Time =    1.000,"PART-1-1",           469,            4.,       -16.875,            0.,NA,NA,"",   270.043E-03,  -259.959E-03,   73.1094E-03,   682.958E-06
C:/temp/dataset/test2/14_9.odb,Step-1,Increment      1: Step Time =    1.000,"PART-1-1",           470,            5.,      -15.9375,            0.,NA,NA,"",   289.244E-03,  -275.118E-03,   89.2890E-03,   926.103E-06
C:/temp/dataset/test2/14_9.odb,Step-1,Increment      1: Step Time =    1.000,"PART-1-1",           471,            1.,      -15.9375,            0.,NA,NA,"",   274.723E-03,  -273.702E-03,   23.6550E-03,   553.723E-06
C:/temp/dataset/test2/14_9.odb,Step-1,Increment      1: Step Time =    1.000,"PART-1-1",           472,            2.,       -16.875,            0.,NA,NA,"",   262.002E-03,  -258.808E-03,   40.7837E-03,   977.894E-06
C:/temp/dataset/test2/14_9.odb,Step-1,Increment      1: Step Time =    1.000,"PART-1-1",           473,           -1.,      -15.9375,            0.,NA,NA,"",   272.930E-03,  -272.704E-03,  -11.1035E-03,   408.683E-06
C:/temp/dataset/test2/14_9.odb,Step-1,Increment      1: Step Time =    1.000,"PART-1-1",           474,            0.,       -16.875,            0.,NA,NA,"",   256.903E-03,  -256.825E-03,   6.33193E-03,   847.031E-06
C:/temp/dataset/test2/14_9.odb,Step-1,Increment      1: Step Time =    1.000,"PART-1-1",           475,           -3.,      -15.9375,            0.,NA,NA,"",   275.940E-03,  -271.984E-03,  -46.5556E-03,   136.789E-06
C:/temp/dataset/test2/14_9.odb,Step-1,Increment      1: Step Time =    1.000,"PART-1-1",           476,           -2.,       -16.875,            0.,NA,NA,"",   256.925E-03,  -255.324E-03,  -28.6378E-03,   538.016E-06
C:/temp/dataset/test2/14_9.odb,Step-1,Increment      1: Step Time =    1.000,"PART-1-1",           477,           -5.,      -15.9375,            0.,NA,NA,"",   283.635E-03,  -271.341E-03,  -82.6018E-03,   530.969E-06
C:/temp/dataset/test2/14_9.odb,Step-1,Increment      1: Step Time =    1.000,"PART-1-1",           478,           -4.,       -16.875,            0.,NA,NA,"",   262.659E-03,  -254.593E-03,  -64.5911E-03,   312.064E-06
C:/temp/dataset/test2/14_9.odb,Step-1,Increment      1: Step Time =    1.000,"PART-1-1",           479,            3.,      -17.8125,            0.,NA,NA,"",   252.513E-03,  -245.908E-03,   57.3777E-03,   2.64204E-03
C:/temp/dataset/test2/14_9.odb,Step-1,Increment      1: Step Time =    1.000,"PART-1-1",           480,            4.,        -18.75,            0.,NA,NA,"",   247.309E-03,  -236.141E-03,   73.4791E-03,   5.19823E-03
C:/temp/dataset/test2/14_9.odb,Step-1,Increment      1: Step Time =    1.000,"PART-1-1",           481,            5.,      -17.8125,            0.,NA,NA,"",   261.810E-03,  -247.015E-03,   86.7645E-03,   1.20721E-03
C:/temp/dataset/test2/14_9.odb,Step-1,Increment      1: Step Time =    1.000,"PART-1-1",           482,            1.,      -17.8125,            0.,NA,NA,"",   242.908E-03,  -241.806E-03,   23.1071E-03,   2.09692E-03
C:/temp/dataset/test2/14_9.odb,Step-1,Increment      1: Step Time =    1.000,"PART-1-1",           483,            2.,        -18.75,            0.,NA,NA,"",   231.743E-03,  -228.446E-03,   38.9522E-03,   3.85688E-03
C:/temp/dataset/test2/14_9.odb,Step-1,Increment      1: Step Time =    1.000,"PART-1-1",           484,           -1.,      -17.8125,            0.,NA,NA,"",   238.989E-03,  -238.725E-03,  -11.2315E-03,   1.49827E-03
C:/temp/dataset/test2/14_9.odb,Step-1,Increment      1: Step Time =    1.000,"PART-1-1",           485,            0.,        -18.75,            0.,NA,NA,"",   222.656E-03,  -222.596E-03,   5.15874E-03,   2.70155E-03
C:/temp/dataset/test2/14_9.odb,Step-1,Increment      1: Step Time =    1.000,"PART-1-1",           486,           -3.,      -17.8125,            0.,NA,NA,"",   241.777E-03,  -237.298E-03,  -46.3255E-03,   849.642E-06
C:/temp/dataset/test2/14_9.odb,Step-1,Increment      1: Step Time =    1.000,"PART-1-1",           487,           -2.,        -18.75,            0.,NA,NA,"",   221.488E-03,  -219.636E-03,  -28.5855E-03,   1.79140E-03
C:/temp/dataset/test2/14_9.odb,Step-1,Increment      1: Step Time =    1.000,"PART-1-1",           488,           -5.,      -17.8125,            0.,NA,NA,"",   250.908E-03,  -236.682E-03,  -83.2864E-03,   364.189E-06
C:/temp/dataset/test2/14_9.odb,Step-1,Increment      1: Step Time =    1.000,"PART-1-1",           489,           -4.,        -18.75,            0.,NA,NA,"",   228.063E-03,  -218.804E-03,  -64.3246E-03,   681.553E-06
C:/temp/dataset/test2/14_9.odb,Step-1,Increment      1: Step Time =    1.000,"PART-1-1",           490,            3.,      -19.6875,            0.,NA,NA,"",   223.614E-03,  -217.131E-03,   53.4543E-03,   7.14880E-03
C:/temp/dataset/test2/14_9.odb,Step-1,Increment      1: Step Time =    1.000,"PART-1-1",           491,            4.,       -20.625,            0.,NA,NA,"",   217.377E-03,  -206.705E-03,   67.2736E-03,   9.06863E-03
C:/temp/dataset/test2/14_9.odb,Step-1,Increment      1: Step Time =    1.000,"PART-1-1",           492,            5.,      -19.6875,            0.,NA,NA,"",   246.646E-03,  -231.163E-03,   86.0114E-03,   7.39820E-03
C:/temp/dataset/test2/14_9.odb,Step-1,Increment      1: Step Time =    1.000,"PART-1-1",           493,            1.,      -19.6875,            0.,NA,NA,"",   208.265E-03,  -207.301E-03,   20.0120E-03,   4.82600E-03
C:/temp/dataset/test2/14_9.odb,Step-1,Increment      1: Step Time =    1.000,"PART-1-1",           494,            2.,       -20.625,            0.,NA,NA,"",   195.549E-03,  -192.721E-03,   33.1331E-03,   7.67906E-03
C:/temp/dataset/test2/14_9.odb,Step-1,Increment      1: Step Time =    1.000,"PART-1-1",           495,           -1.,      -19.6875,            0.,NA,NA,"",   202.228E-03,  -201.865E-03,  -12.1186E-03,   3.46385E-03
C:/temp/dataset/test2/14_9.odb,Step-1,Increment      1: Step Time =    1.000,"PART-1-1",           496,            0.,       -20.625,            0.,NA,NA,"",   184.188E-03,  -184.171E-03,   2.49282E-03,   5.42185E-03
C:/temp/dataset/test2/14_9.odb,Step-1,Increment      1: Step Time =    1.000,"PART-1-1",           497,           -3.,      -19.6875,            0.,NA,NA,"",   205.172E-03,  -200.033E-03,  -45.6315E-03,   2.23312E-03
C:/temp/dataset/test2/14_9.odb,Step-1,Increment      1: Step Time =    1.000,"PART-1-1",           498,           -2.,       -20.625,            0.,NA,NA,"",   182.874E-03,  -180.674E-03,  -28.2791E-03,   3.74245E-03
C:/temp/dataset/test2/14_9.odb,Step-1,Increment      1: Step Time =    1.000,"PART-1-1",           499,           -5.,      -19.6875,            0.,NA,NA,"",   216.588E-03,  -199.946E-03,  -83.2601E-03,   511.883E-06
C:/temp/dataset/test2/14_9.odb,Step-1,Increment      1: Step Time =    1.000,"PART-1-1",           500,           -4.,       -20.625,            0.,NA,NA,"",   191.022E-03,  -180.413E-03,  -62.7756E-03,   1.88551E-03
C:/temp/dataset/test2/14_9.odb,Step-1,Increment      1: Step Time =    1.000,"PART-1-1",           501,            3.,      -21.5625,            0.,NA,NA,"",   182.391E-03,  -176.696E-03,   45.2226E-03,   10.0089E-03
C:/temp/dataset/test2/14_9.odb,Step-1,Increment      1: Step Time =    1.000,"PART-1-1",           502,            4.,         -22.5,            0.,NA,NA,"",   167.506E-03,  -156.803E-03,   58.9168E-03,   8.63475E-03
C:/temp/dataset/test2/14_9.odb,Step-1,Increment      1: Step Time =    1.000,"PART-1-1",           503,            5.,      -21.5625,            0.,NA,NA,"",   211.015E-03,  -192.273E-03,   86.9390E-03,   7.77950E-03
C:/temp/dataset/test2/14_9.odb,Step-1,Increment      1: Step Time =    1.000,"PART-1-1",           504,            1.,      -21.5625,            0.,NA,NA,"",   166.926E-03,  -166.246E-03,   15.0620E-03,   7.54800E-03
C:/temp/dataset/test2/14_9.odb,Step-1,Increment      1: Step Time =    1.000,"PART-1-1",           505,            2.,         -22.5,            0.,NA,NA,"",   149.414E-03,  -147.099E-03,   26.1996E-03,   9.13487E-03
C:/temp/dataset/test2/14_9.odb,Step-1,Increment      1: Step Time =    1.000,"PART-1-1",           506,           -1.,      -21.5625,            0.,NA,NA,"",   161.409E-03,  -160.884E-03,  -13.0032E-03,   5.78615E-03
C:/temp/dataset/test2/14_9.odb,Step-1,Increment      1: Step Time =    1.000,"PART-1-1",           507,            0.,         -22.5,            0.,NA,NA,"",   140.700E-03,  -140.700E-03,  -95.1883E-06,   7.70838E-03
C:/temp/dataset/test2/14_9.odb,Step-1,Increment      1: Step Time =    1.000,"PART-1-1",           508,           -3.,      -21.5625,            0.,NA,NA,"",   165.628E-03,  -159.798E-03,  -43.5567E-03,   4.10575E-03
C:/temp/dataset/test2/14_9.odb,Step-1,Increment      1: Step Time =    1.000,"PART-1-1",           509,           -2.,         -22.5,            0.,NA,NA,"",   141.097E-03,  -138.559E-03,  -26.6413E-03,   5.83114E-03
C:/temp/dataset/test2/14_9.odb,Step-1,Increment      1: Step Time =    1.000,"PART-1-1",           510,           -5.,      -21.5625,            0.,NA,NA,"",   180.281E-03,  -161.070E-03,  -80.9790E-03,   2.37057E-03
C:/temp/dataset/test2/14_9.odb,Step-1,Increment      1: Step Time =    1.000,"PART-1-1",           511,           -4.,         -22.5,            0.,NA,NA,"",   151.658E-03,  -139.856E-03,  -58.6549E-03,   3.85631E-03
C:/temp/dataset/test2/14_9.odb,Step-1,Increment      1: Step Time =    1.000,"PART-1-1",           512,            3.,      -23.4375,            0.,NA,NA,"",   131.486E-03,  -125.920E-03,   37.8503E-03,   8.79409E-03
C:/temp/dataset/test2/14_9.odb,Step-1,Increment      1: Step Time =    1.000,"PART-1-1",           513,            4.,       -24.375,            0.,NA,NA,"",   116.184E-03,  -103.829E-03,   52.1366E-03,   6.91281E-03
C:/temp/dataset/test2/14_9.odb,Step-1,Increment      1: Step Time =    1.000,"PART-1-1",           514,            5.,      -23.4375,            0.,NA,NA,"",   154.178E-03,  -131.378E-03,   80.6893E-03,   6.73498E-03
C:/temp/dataset/test2/14_9.odb,Step-1,Increment      1: Step Time =    1.000,"PART-1-1",           515,            1.,      -23.4375,            0.,NA,NA,"",   120.378E-03,  -119.886E-03,   10.8725E-03,   8.95650E-03
C:/temp/dataset/test2/14_9.odb,Step-1,Increment      1: Step Time =    1.000,"PART-1-1",           516,            2.,       -24.375,            0.,NA,NA,"",   100.771E-03,  -98.6093E-03,   20.7598E-03,   8.56237E-03
C:/temp/dataset/test2/14_9.odb,Step-1,Increment      1: Step Time =    1.000,"PART-1-1",           517,           -1.,      -23.4375,            0.,NA,NA,"",   117.659E-03,  -116.993E-03,  -12.5053E-03,   7.68652E-03
C:/temp/dataset/test2/14_9.odb,Step-1,Increment      1: Step Time =    1.000,"PART-1-1",           518,            0.,       -24.375,            0.,NA,NA,"",   95.4715E-03,  -95.4650E-03,  -1.11023E-03,   8.66082E-03
C:/temp/dataset/test2/14_9.odb,Step-1,Increment      1: Step Time =    1.000,"PART-1-1",           519,           -3.,      -23.4375,            0.,NA,NA,"",   124.064E-03,  -117.789E-03,  -38.9593E-03,   6.11279E-03
C:/temp/dataset/test2/14_9.odb,Step-1,Increment      1: Step Time =    1.000,"PART-1-1",           520,           -2.,       -24.375,            0.,NA,NA,"",   98.1782E-03,  -95.5444E-03,  -22.5882E-03,   7.49126E-03
C:/temp/dataset/test2/14_9.odb,Step-1,Increment      1: Step Time =    1.000,"PART-1-1",           521,           -5.,      -23.4375,            0.,NA,NA,"",   142.379E-03,  -121.260E-03,  -74.6167E-03,   5.26286E-03
C:/temp/dataset/test2/14_9.odb,Step-1,Increment      1: Step Time =    1.000,"PART-1-1",           522,           -4.,       -24.375,            0.,NA,NA,"",   111.227E-03,  -99.0084E-03,  -50.6842E-03,   6.42987E-03
C:/temp/dataset/test2/14_9.odb,Step-1,Increment      1: Step Time =    1.000,"PART-1-1",           523,            3.,      -25.3125,            0.,NA,NA,"",   84.1850E-03,  -78.4864E-03,   30.4467E-03,   8.14764E-03
C:/temp/dataset/test2/14_9.odb,Step-1,Increment      1: Step Time =    1.000,"PART-1-1",           524,            4.,        -26.25,            0.,NA,NA,"",   73.2843E-03,  -61.9072E-03,   39.2184E-03,   9.86575E-03
C:/temp/dataset/test2/14_9.odb,Step-1,Increment      1: Step Time =    1.000,"PART-1-1",           525,            5.,      -25.3125,            0.,NA,NA,"",   108.256E-03,  -86.0359E-03,   65.7045E-03,   10.2790E-03
C:/temp/dataset/test2/14_9.odb,Step-1,Increment      1: Step Time =    1.000,"PART-1-1",           526,            1.,      -25.3125,            0.,NA,NA,"",   75.0182E-03,  -74.6018E-03,   7.89293E-03,   8.99446E-03
C:/temp/dataset/test2/14_9.odb,Step-1,Increment      1: Step Time =    1.000,"PART-1-1",           527,            2.,        -26.25,            0.,NA,NA,"",   57.5914E-03,  -55.6101E-03,   14.9760E-03,   8.51592E-03
C:/temp/dataset/test2/14_9.odb,Step-1,Increment      1: Step Time =    1.000,"PART-1-1",           528,           -1.,      -25.3125,            0.,NA,NA,"",   74.5037E-03,  -73.8420E-03,  -9.90724E-03,   8.65913E-03
C:/temp/dataset/test2/14_9.odb,Step-1,Increment      1: Step Time =    1.000,"PART-1-1",           529,            0.,        -26.25,            0.,NA,NA,"",   53.6114E-03,  -53.6044E-03,  -865.697E-06,   8.60781E-03
C:/temp/dataset/test2/14_9.odb,Step-1,Increment      1: Step Time =    1.000,"PART-1-1",           530,           -3.,      -25.3125,            0.,NA,NA,"",   82.6537E-03,  -76.6595E-03,  -30.9023E-03,   8.13665E-03
C:/temp/dataset/test2/14_9.odb,Step-1,Increment      1: Step Time =    1.000,"PART-1-1",           531,           -2.,        -26.25,            0.,NA,NA,"",   57.4607E-03,  -55.1865E-03,  -16.0057E-03,   8.75453E-03
C:/temp/dataset/test2/14_9.odb,Step-1,Increment      1: Step Time =    1.000,"PART-1-1",           532,           -5.,      -25.3125,            0.,NA,NA,"",   103.844E-03,  -82.8199E-03,  -62.6451E-03,   8.68162E-03
C:/temp/dataset/test2/14_9.odb,Step-1,Increment      1: Step Time =    1.000,"PART-1-1",           533,           -4.,        -26.25,            0.,NA,NA,"",   71.8896E-03,  -60.9339E-03,  -38.1466E-03,   9.27588E-03
C:/temp/dataset/test2/14_9.odb,Step-1,Increment      1: Step Time =    1.000,"PART-1-1",           534,            3.,      -27.1875,            0.,NA,NA,"",   44.1626E-03,  -39.5959E-03,   19.5577E-03,   9.78899E-03
C:/temp/dataset/test2/14_9.odb,Step-1,Increment      1: Step Time =    1.000,"PART-1-1",           535,            4.,       -28.125,            0.,NA,NA,"",   33.6951E-03,  -26.7101E-03,   20.5409E-03,   13.0648E-03
C:/temp/dataset/test2/14_9.odb,Step-1,Increment      1: Step Time =    1.000,"PART-1-1",           536,            5.,      -27.1875,            0.,NA,NA,"",   67.7632E-03,  -49.5251E-03,   46.2507E-03,   14.1696E-03
C:/temp/dataset/test2/14_9.odb,Step-1,Increment      1: Step Time =    1.000,"PART-1-1",           537,            1.,      -27.1875,            0.,NA,NA,"",   36.2370E-03,  -35.9048E-03,   4.89542E-03,   8.40084E-03
C:/temp/dataset/test2/14_9.odb,Step-1,Increment      1: Step Time =    1.000,"PART-1-1",           538,            2.,       -28.125,            0.,NA,NA,"",   22.4952E-03,  -21.2874E-03,   7.27196E-03,   8.84801E-03
C:/temp/dataset/test2/14_9.odb,Step-1,Increment      1: Step Time =    1.000,"PART-1-1",           539,           -1.,      -27.1875,            0.,NA,NA,"",   36.4278E-03,  -35.9395E-03,  -5.94443E-03,   8.58230E-03
C:/temp/dataset/test2/14_9.odb,Step-1,Increment      1: Step Time =    1.000,"PART-1-1",           540,            0.,       -28.125,            0.,NA,NA,"",   19.9653E-03,  -19.9623E-03,  -343.881E-06,   7.52310E-03
C:/temp/dataset/test2/14_9.odb,Step-1,Increment      1: Step Time =    1.000,"PART-1-1",           541,           -3.,      -27.1875,            0.,NA,NA,"",   44.0686E-03,  -39.5469E-03,  -19.4444E-03,   10.0038E-03
C:/temp/dataset/test2/14_9.odb,Step-1,Increment      1: Step Time =    1.000,"PART-1-1",           542,           -2.,       -28.125,            0.,NA,NA,"",   22.7857E-03,  -21.4999E-03,  -7.54610E-03,   9.10523E-03
C:/temp/dataset/test2/14_9.odb,Step-1,Increment      1: Step Time =    1.000,"PART-1-1",           543,           -5.,      -27.1875,            0.,NA,NA,"",   66.2997E-03,  -48.6861E-03,  -45.0035E-03,   13.0704E-03
C:/temp/dataset/test2/14_9.odb,Step-1,Increment      1: Step Time =    1.000,"PART-1-1",           544,           -4.,       -28.125,            0.,NA,NA,"",   33.2228E-03,  -26.6394E-03,  -19.8519E-03,   12.6296E-03
C:/temp/dataset/test2/14_9.odb,Step-1,Increment      1: Step Time =    1.000,"PART-1-1",           545,            3.,      -29.0625,            0.,NA,NA,"",   10.8480E-03,  -9.00242E-03,   6.05272E-03,   9.57866E-03
C:/temp/dataset/test2/14_9.odb,Step-1,Increment      1: Step Time =    1.000,"PART-1-1",           546,            4.,          -30.,            0.,NA,NA,"",            0.,  -1.08522E-39,   17.8759E-39,   16.3794E-03
C:/temp/dataset/test2/14_9.odb,Step-1,Increment      1: Step Time =    1.000,"PART-1-1",           547,            5.,      -29.0625,            0.,NA,NA,"",   25.6675E-03,  -18.5216E-03,   17.7700E-03,   20.0402E-03
C:/temp/dataset/test2/14_9.odb,Step-1,Increment      1: Step Time =    1.000,"PART-1-1",           548,            1.,      -29.0625,            0.,NA,NA,"",   8.18813E-03,  -8.02525E-03,   1.62509E-03,   6.12026E-03
C:/temp/dataset/test2/14_9.odb,Step-1,Increment      1: Step Time =    1.000,"PART-1-1",           549,            2.,          -30.,            0.,NA,NA,"",            0.,  -3.08657E-39,   7.41318E-39,   6.14842E-03
C:/temp/dataset/test2/14_9.odb,Step-1,Increment      1: Step Time =    1.000,"PART-1-1",           550,           -1.,      -29.0625,            0.,NA,NA,"",   8.35584E-03,  -8.14763E-03,  -1.85373E-03,   6.33833E-03
C:/temp/dataset/test2/14_9.odb,Step-1,Increment      1: Step Time =    1.000,"PART-1-1",           551,            0.,          -30.,            0.,NA,NA,"",            0.,  -3.03034E-39,  -251.634E-42,   4.09588E-03
C:/temp/dataset/test2/14_9.odb,Step-1,Increment      1: Step Time =    1.000,"PART-1-1",           552,           -3.,      -29.0625,            0.,NA,NA,"",   10.9143E-03,  -9.15553E-03,  -5.94121E-03,   9.60926E-03
C:/temp/dataset/test2/14_9.odb,Step-1,Increment      1: Step Time =    1.000,"PART-1-1",           553,           -2.,          -30.,            0.,NA,NA,"",            0.,  -3.28792E-39,  -7.65308E-39,   6.28535E-03
C:/temp/dataset/test2/14_9.odb,Step-1,Increment      1: Step Time =    1.000,"PART-1-1",           554,           -5.,      -29.0625,            0.,NA,NA,"",   25.2524E-03,  -18.2382E-03,  -17.4658E-03,   19.3541E-03
C:/temp/dataset/test2/14_9.odb,Step-1,Increment      1: Step Time =    1.000,"PART-1-1",           555,           -4.,          -30.,            0.,NA,NA,"",            0.,  -1.11939E-39,  -17.6398E-39,   16.0206E-03
