ODB Name,Step,Frame,Part Instance Name,    êﬂì_ÉâÉxÉã,X,Y,Z,Section Name,Material Name,Section Point,   U-Magnitude,          U-U1,          U-U2,       S-Mises
C:/temp/dataset/test2/16_4.odb,Step-1,Increment      1: Step Time =    1.000,"PART-1-1",             1,            5.,           30.,            0.,NA,NA,"",   61.4969E-03,  -61.1333E-03,   6.67791E-03,   16.8111E-12
C:/temp/dataset/test2/16_4.odb,Step-1,Increment      1: Step Time =    1.000,"PART-1-1",             2,            3.,           30.,            0.,NA,NA,"",   61.3246E-03,  -61.1324E-03,   4.85088E-03,   15.9221E-12
C:/temp/dataset/test2/16_4.odb,Step-1,Increment      1: Step Time =    1.000,"PART-1-1",             3,            1.,           30.,            0.,NA,NA,"",   61.2063E-03,  -61.1316E-03,   3.02385E-03,   16.3942E-12
C:/temp/dataset/test2/16_4.odb,Step-1,Increment      1: Step Time =    1.000,"PART-1-1",             4,           -1.,           30.,            0.,NA,NA,"",   61.1425E-03,  -61.1307E-03,   1.19682E-03,   20.2857E-12
C:/temp/dataset/test2/16_4.odb,Step-1,Increment      1: Step Time =    1.000,"PART-1-1",             5,           -3.,           30.,            0.,NA,NA,"",   61.1332E-03,  -61.1299E-03,  -630.206E-06,   25.3985E-12
C:/temp/dataset/test2/16_4.odb,Step-1,Increment      1: Step Time =    1.000,"PART-1-1",             6,           -5.,           30.,            0.,NA,NA,"",   61.1784E-03,  -61.1291E-03,  -2.45724E-03,   17.8103E-12
C:/temp/dataset/test2/16_4.odb,Step-1,Increment      1: Step Time =    1.000,"PART-1-1",             7,            5.,        28.125,            0.,NA,NA,"",   59.7946E-03,  -59.4204E-03,   6.67869E-03,   26.5756E-12
C:/temp/dataset/test2/16_4.odb,Step-1,Increment      1: Step Time =    1.000,"PART-1-1",             8,            3.,        28.125,            0.,NA,NA,"",   59.6173E-03,  -59.4196E-03,   4.85166E-03,   19.0905E-12
C:/temp/dataset/test2/16_4.odb,Step-1,Increment      1: Step Time =    1.000,"PART-1-1",             9,            1.,        28.125,            0.,NA,NA,"",   59.4957E-03,  -59.4187E-03,   3.02464E-03,   21.4584E-12
C:/temp/dataset/test2/16_4.odb,Step-1,Increment      1: Step Time =    1.000,"PART-1-1",            10,           -1.,        28.125,            0.,NA,NA,"",   59.4300E-03,  -59.4179E-03,   1.19761E-03,   21.3426E-12
C:/temp/dataset/test2/16_4.odb,Step-1,Increment      1: Step Time =    1.000,"PART-1-1",            11,           -3.,        28.125,            0.,NA,NA,"",   59.4204E-03,  -59.4171E-03,  -629.423E-06,   16.4651E-12
C:/temp/dataset/test2/16_4.odb,Step-1,Increment      1: Step Time =    1.000,"PART-1-1",            12,           -5.,        28.125,            0.,NA,NA,"",   59.4670E-03,  -59.4162E-03,  -2.45645E-03,   16.3717E-12
C:/temp/dataset/test2/16_4.odb,Step-1,Increment      1: Step Time =    1.000,"PART-1-1",            13,            5.,         26.25,            0.,NA,NA,"",   58.0928E-03,  -57.7076E-03,   6.67948E-03,   30.0349E-12
C:/temp/dataset/test2/16_4.odb,Step-1,Increment      1: Step Time =    1.000,"PART-1-1",            14,            3.,         26.25,            0.,NA,NA,"",   57.9104E-03,  -57.7067E-03,   4.85245E-03,   23.3089E-12
C:/temp/dataset/test2/16_4.odb,Step-1,Increment      1: Step Time =    1.000,"PART-1-1",            15,            1.,         26.25,            0.,NA,NA,"",   57.7852E-03,  -57.7059E-03,   3.02542E-03,   22.4113E-12
C:/temp/dataset/test2/16_4.odb,Step-1,Increment      1: Step Time =    1.000,"PART-1-1",            16,           -1.,         26.25,            0.,NA,NA,"",   57.7175E-03,  -57.7051E-03,   1.19839E-03,   20.2968E-12
C:/temp/dataset/test2/16_4.odb,Step-1,Increment      1: Step Time =    1.000,"PART-1-1",            17,           -3.,         26.25,            0.,NA,NA,"",   57.7077E-03,  -57.7042E-03,  -628.641E-06,   15.1308E-12
C:/temp/dataset/test2/16_4.odb,Step-1,Increment      1: Step Time =    1.000,"PART-1-1",            18,           -5.,         26.25,            0.,NA,NA,"",   57.7556E-03,  -57.7034E-03,  -2.45567E-03,   18.1576E-12
C:/temp/dataset/test2/16_4.odb,Step-1,Increment      1: Step Time =    1.000,"PART-1-1",            19,            5.,        24.375,            0.,NA,NA,"",   56.3918E-03,  -55.9947E-03,   6.68026E-03,   36.2261E-12
C:/temp/dataset/test2/16_4.odb,Step-1,Increment      1: Step Time =    1.000,"PART-1-1",            20,            3.,        24.375,            0.,NA,NA,"",   56.2038E-03,  -55.9939E-03,   4.85323E-03,   27.5424E-12
C:/temp/dataset/test2/16_4.odb,Step-1,Increment      1: Step Time =    1.000,"PART-1-1",            21,            1.,        24.375,            0.,NA,NA,"",   56.0748E-03,  -55.9931E-03,   3.02620E-03,   23.1518E-12
C:/temp/dataset/test2/16_4.odb,Step-1,Increment      1: Step Time =    1.000,"PART-1-1",            22,           -1.,        24.375,            0.,NA,NA,"",   56.0051E-03,  -55.9922E-03,   1.19917E-03,   19.5148E-12
C:/temp/dataset/test2/16_4.odb,Step-1,Increment      1: Step Time =    1.000,"PART-1-1",            23,           -3.,        24.375,            0.,NA,NA,"",   55.9949E-03,  -55.9914E-03,  -627.859E-06,   16.8850E-12
C:/temp/dataset/test2/16_4.odb,Step-1,Increment      1: Step Time =    1.000,"PART-1-1",            24,           -5.,        24.375,            0.,NA,NA,"",   56.0444E-03,  -55.9906E-03,  -2.45489E-03,   23.4518E-12
C:/temp/dataset/test2/16_4.odb,Step-1,Increment      1: Step Time =    1.000,"PART-1-1",            25,            5.,          22.5,            0.,NA,NA,"",   54.6915E-03,  -54.2819E-03,   6.68104E-03,   42.8713E-12
C:/temp/dataset/test2/16_4.odb,Step-1,Increment      1: Step Time =    1.000,"PART-1-1",            26,            3.,          22.5,            0.,NA,NA,"",   54.4977E-03,  -54.2811E-03,   4.85401E-03,   31.8337E-12
C:/temp/dataset/test2/16_4.odb,Step-1,Increment      1: Step Time =    1.000,"PART-1-1",            27,            1.,          22.5,            0.,NA,NA,"",   54.3646E-03,  -54.2802E-03,   3.02698E-03,   24.3381E-12
C:/temp/dataset/test2/16_4.odb,Step-1,Increment      1: Step Time =    1.000,"PART-1-1",            28,           -1.,          22.5,            0.,NA,NA,"",   54.2926E-03,  -54.2794E-03,   1.19995E-03,   19.3126E-12
C:/temp/dataset/test2/16_4.odb,Step-1,Increment      1: Step Time =    1.000,"PART-1-1",            29,           -3.,          22.5,            0.,NA,NA,"",   54.2822E-03,  -54.2786E-03,  -627.076E-06,   19.8346E-12
C:/temp/dataset/test2/16_4.odb,Step-1,Increment      1: Step Time =    1.000,"PART-1-1",            30,           -5.,          22.5,            0.,NA,NA,"",   54.3332E-03,  -54.2777E-03,  -2.45411E-03,   30.8111E-12
C:/temp/dataset/test2/16_4.odb,Step-1,Increment      1: Step Time =    1.000,"PART-1-1",            31,            5.,        20.625,            0.,NA,NA,"",   52.9920E-03,  -52.5691E-03,   6.68182E-03,   49.2360E-12
C:/temp/dataset/test2/16_4.odb,Step-1,Increment      1: Step Time =    1.000,"PART-1-1",            32,            3.,        20.625,            0.,NA,NA,"",   52.7919E-03,  -52.5682E-03,   4.85479E-03,   36.3883E-12
C:/temp/dataset/test2/16_4.odb,Step-1,Increment      1: Step Time =    1.000,"PART-1-1",            33,            1.,        20.625,            0.,NA,NA,"",   52.6545E-03,  -52.5674E-03,   3.02776E-03,   26.0212E-12
C:/temp/dataset/test2/16_4.odb,Step-1,Increment      1: Step Time =    1.000,"PART-1-1",            34,           -1.,        20.625,            0.,NA,NA,"",   52.5803E-03,  -52.5665E-03,   1.20074E-03,   19.5354E-12
C:/temp/dataset/test2/16_4.odb,Step-1,Increment      1: Step Time =    1.000,"PART-1-1",            35,           -3.,        20.625,            0.,NA,NA,"",   52.5694E-03,  -52.5657E-03,  -626.294E-06,   23.3861E-12
C:/temp/dataset/test2/16_4.odb,Step-1,Increment      1: Step Time =    1.000,"PART-1-1",            36,           -5.,        20.625,            0.,NA,NA,"",   52.6221E-03,  -52.5649E-03,  -2.45332E-03,   39.6204E-12
C:/temp/dataset/test2/16_4.odb,Step-1,Increment      1: Step Time =    1.000,"PART-1-1",            37,            5.,         18.75,            0.,NA,NA,"",   51.2934E-03,  -50.8562E-03,   6.68261E-03,   55.4733E-12
C:/temp/dataset/test2/16_4.odb,Step-1,Increment      1: Step Time =    1.000,"PART-1-1",            38,            3.,         18.75,            0.,NA,NA,"",   51.0867E-03,  -50.8554E-03,   4.85558E-03,   41.6623E-12
C:/temp/dataset/test2/16_4.odb,Step-1,Increment      1: Step Time =    1.000,"PART-1-1",            39,            1.,         18.75,            0.,NA,NA,"",   50.9446E-03,  -50.8545E-03,   3.02855E-03,   28.3383E-12
C:/temp/dataset/test2/16_4.odb,Step-1,Increment      1: Step Time =    1.000,"PART-1-1",            40,           -1.,         18.75,            0.,NA,NA,"",   50.8679E-03,  -50.8537E-03,   1.20152E-03,   20.6668E-12
C:/temp/dataset/test2/16_4.odb,Step-1,Increment      1: Step Time =    1.000,"PART-1-1",            41,           -3.,         18.75,            0.,NA,NA,"",   50.8567E-03,  -50.8529E-03,  -625.512E-06,   27.1118E-12
C:/temp/dataset/test2/16_4.odb,Step-1,Increment      1: Step Time =    1.000,"PART-1-1",            42,           -5.,         18.75,            0.,NA,NA,"",   50.9111E-03,  -50.8520E-03,  -2.45254E-03,   49.0359E-12
C:/temp/dataset/test2/16_4.odb,Step-1,Increment      1: Step Time =    1.000,"PART-1-1",            43,            5.,        16.875,            0.,NA,NA,"",   49.5958E-03,  -49.1434E-03,   6.68339E-03,   63.7897E-12
C:/temp/dataset/test2/16_4.odb,Step-1,Increment      1: Step Time =    1.000,"PART-1-1",            44,            3.,        16.875,            0.,NA,NA,"",   49.3819E-03,  -49.1425E-03,   4.85636E-03,   49.2549E-12
C:/temp/dataset/test2/16_4.odb,Step-1,Increment      1: Step Time =    1.000,"PART-1-1",            45,            1.,        16.875,            0.,NA,NA,"",   49.2350E-03,  -49.1417E-03,   3.02933E-03,   32.9769E-12
C:/temp/dataset/test2/16_4.odb,Step-1,Increment      1: Step Time =    1.000,"PART-1-1",            46,           -1.,        16.875,            0.,NA,NA,"",   49.1556E-03,  -49.1409E-03,   1.20230E-03,   26.6034E-12
C:/temp/dataset/test2/16_4.odb,Step-1,Increment      1: Step Time =    1.000,"PART-1-1",            47,           -3.,        16.875,            0.,NA,NA,"",   49.1440E-03,  -49.1400E-03,  -624.729E-06,   31.3449E-12
C:/temp/dataset/test2/16_4.odb,Step-1,Increment      1: Step Time =    1.000,"PART-1-1",            48,           -5.,        16.875,            0.,NA,NA,"",   49.2003E-03,  -49.1392E-03,  -2.45176E-03,   56.5623E-12
C:/temp/dataset/test2/16_4.odb,Step-1,Increment      1: Step Time =    1.000,"PART-1-1",            49,            5.,           15.,            0.,NA,NA,"",   47.8992E-03,  -47.4305E-03,   6.68417E-03,   81.6674E-12
C:/temp/dataset/test2/16_4.odb,Step-1,Increment      1: Step Time =    1.000,"PART-1-1",            50,            3.,           15.,            0.,NA,NA,"",   47.6778E-03,  -47.4297E-03,   4.85714E-03,   66.3314E-12
C:/temp/dataset/test2/16_4.odb,Step-1,Increment      1: Step Time =    1.000,"PART-1-1",            51,            1.,           15.,            0.,NA,NA,"",   47.5256E-03,  -47.4289E-03,   3.03011E-03,   50.9644E-12
C:/temp/dataset/test2/16_4.odb,Step-1,Increment      1: Step Time =    1.000,"PART-1-1",            52,           -1.,           15.,            0.,NA,NA,"",   47.4433E-03,  -47.4280E-03,   1.20308E-03,   50.8417E-12
C:/temp/dataset/test2/16_4.odb,Step-1,Increment      1: Step Time =    1.000,"PART-1-1",            53,           -3.,           15.,            0.,NA,NA,"",   47.4313E-03,  -47.4272E-03,  -623.947E-06,   44.1003E-12
C:/temp/dataset/test2/16_4.odb,Step-1,Increment      1: Step Time =    1.000,"PART-1-1",            54,           -5.,           15.,            0.,NA,NA,"",   47.4897E-03,  -47.4264E-03,  -2.45098E-03,   54.7423E-12
C:/temp/dataset/test2/16_4.odb,Step-1,Increment      1: Step Time =    1.000,"PART-1-1",            55,            5.,        13.125,            0.,NA,NA,"",   46.2039E-03,  -45.7177E-03,   6.68495E-03,   128.432E-12
C:/temp/dataset/test2/16_4.odb,Step-1,Increment      1: Step Time =    1.000,"PART-1-1",            56,            3.,        13.125,            0.,NA,NA,"",   45.9742E-03,  -45.7169E-03,   4.85792E-03,   113.354E-12
C:/temp/dataset/test2/16_4.odb,Step-1,Increment      1: Step Time =    1.000,"PART-1-1",            57,            1.,        13.125,            0.,NA,NA,"",   45.8164E-03,  -45.7160E-03,   3.03089E-03,   106.705E-12
C:/temp/dataset/test2/16_4.odb,Step-1,Increment      1: Step Time =    1.000,"PART-1-1",            58,           -1.,        13.125,            0.,NA,NA,"",   45.7310E-03,  -45.7152E-03,   1.20386E-03,   113.530E-12
C:/temp/dataset/test2/16_4.odb,Step-1,Increment      1: Step Time =    1.000,"PART-1-1",            59,           -3.,        13.125,            0.,NA,NA,"",   45.7186E-03,  -45.7144E-03,  -623.164E-06,   90.4683E-12
C:/temp/dataset/test2/16_4.odb,Step-1,Increment      1: Step Time =    1.000,"PART-1-1",            60,           -5.,        13.125,            0.,NA,NA,"",   45.7791E-03,  -45.7135E-03,  -2.45019E-03,   27.8179E-12
C:/temp/dataset/test2/16_4.odb,Step-1,Increment      1: Step Time =    1.000,"PART-1-1",            61,            5.,         11.25,            0.,NA,NA,"",   44.5098E-03,  -44.0049E-03,   6.68573E-03,   244.376E-12
C:/temp/dataset/test2/16_4.odb,Step-1,Increment      1: Step Time =    1.000,"PART-1-1",            62,            3.,         11.25,            0.,NA,NA,"",   44.2714E-03,  -44.0040E-03,   4.85871E-03,   218.415E-12
C:/temp/dataset/test2/16_4.odb,Step-1,Increment      1: Step Time =    1.000,"PART-1-1",            63,            1.,         11.25,            0.,NA,NA,"",   44.1075E-03,  -44.0032E-03,   3.03168E-03,   222.644E-12
C:/temp/dataset/test2/16_4.odb,Step-1,Increment      1: Step Time =    1.000,"PART-1-1",            64,           -1.,         11.25,            0.,NA,NA,"",   44.0188E-03,  -44.0023E-03,   1.20465E-03,   235.180E-12
C:/temp/dataset/test2/16_4.odb,Step-1,Increment      1: Step Time =    1.000,"PART-1-1",            65,           -3.,         11.25,            0.,NA,NA,"",   44.0059E-03,  -44.0015E-03,  -622.382E-06,   197.040E-12
C:/temp/dataset/test2/16_4.odb,Step-1,Increment      1: Step Time =    1.000,"PART-1-1",            66,           -5.,         11.25,            0.,NA,NA,"",   44.0688E-03,  -44.0007E-03,  -2.44941E-03,   81.9323E-12
C:/temp/dataset/test2/16_4.odb,Step-1,Increment      1: Step Time =    1.000,"PART-1-1",            67,            5.,         9.375,            0.,NA,NA,"",   42.8173E-03,  -42.2920E-03,   6.68652E-03,   496.409E-12
C:/temp/dataset/test2/16_4.odb,Step-1,Increment      1: Step Time =    1.000,"PART-1-1",            68,            3.,         9.375,            0.,NA,NA,"",   42.5695E-03,  -42.2912E-03,   4.85949E-03,   392.734E-12
C:/temp/dataset/test2/16_4.odb,Step-1,Increment      1: Step Time =    1.000,"PART-1-1",            69,            1.,         9.375,            0.,NA,NA,"",   42.3989E-03,  -42.2903E-03,   3.03246E-03,   398.265E-12
C:/temp/dataset/test2/16_4.odb,Step-1,Increment      1: Step Time =    1.000,"PART-1-1",            70,           -1.,         9.375,            0.,NA,NA,"",   42.3067E-03,  -42.2895E-03,   1.20543E-03,   416.473E-12
C:/temp/dataset/test2/16_4.odb,Step-1,Increment      1: Step Time =    1.000,"PART-1-1",            71,           -3.,         9.375,            0.,NA,NA,"",   42.2932E-03,  -42.2887E-03,  -621.600E-06,   372.863E-12
C:/temp/dataset/test2/16_4.odb,Step-1,Increment      1: Step Time =    1.000,"PART-1-1",            72,           -5.,         9.375,            0.,NA,NA,"",   42.3587E-03,  -42.2878E-03,  -2.44863E-03,   315.971E-12
C:/temp/dataset/test2/16_4.odb,Step-1,Increment      1: Step Time =    1.000,"PART-1-1",            73,            5.,           7.5,            0.,NA,NA,"",   41.1265E-03,  -40.5792E-03,   6.68730E-03,   959.531E-12
C:/temp/dataset/test2/16_4.odb,Step-1,Increment      1: Step Time =    1.000,"PART-1-1",            74,            3.,           7.5,            0.,NA,NA,"",   40.8684E-03,  -40.5783E-03,   4.86027E-03,   567.837E-12
C:/temp/dataset/test2/16_4.odb,Step-1,Increment      1: Step Time =    1.000,"PART-1-1",            75,            1.,           7.5,            0.,NA,NA,"",   40.6907E-03,  -40.5775E-03,   3.03324E-03,   547.343E-12
C:/temp/dataset/test2/16_4.odb,Step-1,Increment      1: Step Time =    1.000,"PART-1-1",            76,           -1.,           7.5,            0.,NA,NA,"",   40.5946E-03,  -40.5767E-03,   1.20621E-03,   572.947E-12
C:/temp/dataset/test2/16_4.odb,Step-1,Increment      1: Step Time =    1.000,"PART-1-1",            77,           -3.,           7.5,            0.,NA,NA,"",   40.5806E-03,  -40.5758E-03,  -620.817E-06,   549.962E-12
C:/temp/dataset/test2/16_4.odb,Step-1,Increment      1: Step Time =    1.000,"PART-1-1",            78,           -5.,           7.5,            0.,NA,NA,"",   40.6488E-03,  -40.5750E-03,  -2.44785E-03,   762.118E-12
C:/temp/dataset/test2/16_4.odb,Step-1,Increment      1: Step Time =    1.000,"PART-1-1",            79,            5.,         5.625,            0.,NA,NA,"",   39.4376E-03,  -38.8663E-03,   6.68808E-03,   1.61179E-09
C:/temp/dataset/test2/16_4.odb,Step-1,Increment      1: Step Time =    1.000,"PART-1-1",            80,            3.,         5.625,            0.,NA,NA,"",   39.1683E-03,  -38.8655E-03,   4.86105E-03,   447.583E-12
C:/temp/dataset/test2/16_4.odb,Step-1,Increment      1: Step Time =    1.000,"PART-1-1",            81,            1.,         5.625,            0.,NA,NA,"",   38.9829E-03,  -38.8647E-03,   3.03402E-03,   582.504E-12
C:/temp/dataset/test2/16_4.odb,Step-1,Increment      1: Step Time =    1.000,"PART-1-1",            82,           -1.,         5.625,            0.,NA,NA,"",   38.8826E-03,  -38.8638E-03,   1.20700E-03,   611.010E-12
C:/temp/dataset/test2/16_4.odb,Step-1,Increment      1: Step Time =    1.000,"PART-1-1",            83,           -3.,         5.625,            0.,NA,NA,"",   38.8679E-03,  -38.8630E-03,  -620.035E-06,   438.642E-12
C:/temp/dataset/test2/16_4.odb,Step-1,Increment      1: Step Time =    1.000,"PART-1-1",            84,           -5.,         5.625,            0.,NA,NA,"",   38.9391E-03,  -38.8622E-03,  -2.44707E-03,   1.39740E-09
C:/temp/dataset/test2/16_4.odb,Step-1,Increment      1: Step Time =    1.000,"PART-1-1",            85,            5.,          3.75,            0.,NA,NA,"",   37.7508E-03,  -37.1535E-03,   6.68886E-03,   2.00296E-09
C:/temp/dataset/test2/16_4.odb,Step-1,Increment      1: Step Time =    1.000,"PART-1-1",            86,            3.,          3.75,            0.,NA,NA,"",   37.4694E-03,  -37.1527E-03,   4.86183E-03,   1.21520E-09
C:/temp/dataset/test2/16_4.odb,Step-1,Increment      1: Step Time =    1.000,"PART-1-1",            87,            1.,          3.75,            0.,NA,NA,"",   37.2756E-03,  -37.1518E-03,   3.03481E-03,   2.39672E-09
C:/temp/dataset/test2/16_4.odb,Step-1,Increment      1: Step Time =    1.000,"PART-1-1",            88,           -1.,          3.75,            0.,NA,NA,"",   37.1706E-03,  -37.1510E-03,   1.20778E-03,   2.39184E-09
C:/temp/dataset/test2/16_4.odb,Step-1,Increment      1: Step Time =    1.000,"PART-1-1",            89,           -3.,          3.75,            0.,NA,NA,"",   37.1553E-03,  -37.1501E-03,  -619.252E-06,   1.24463E-09
C:/temp/dataset/test2/16_4.odb,Step-1,Increment      1: Step Time =    1.000,"PART-1-1",            90,           -5.,          3.75,            0.,NA,NA,"",   37.2298E-03,  -37.1493E-03,  -2.44629E-03,   1.77152E-09
C:/temp/dataset/test2/16_4.odb,Step-1,Increment      1: Step Time =    1.000,"PART-1-1",            91,            5.,         1.875,            0.,NA,NA,"",   36.0665E-03,  -35.4407E-03,   6.68964E-03,   673.999E-12
C:/temp/dataset/test2/16_4.odb,Step-1,Increment      1: Step Time =    1.000,"PART-1-1",            92,            3.,         1.875,            0.,NA,NA,"",   35.7719E-03,  -35.4398E-03,   4.86262E-03,   6.44535E-09
C:/temp/dataset/test2/16_4.odb,Step-1,Increment      1: Step Time =    1.000,"PART-1-1",            93,            1.,         1.875,            0.,NA,NA,"",   35.5688E-03,  -35.4390E-03,   3.03558E-03,   9.02765E-09
C:/temp/dataset/test2/16_4.odb,Step-1,Increment      1: Step Time =    1.000,"PART-1-1",            94,           -1.,         1.875,            0.,NA,NA,"",   35.4587E-03,  -35.4381E-03,   1.20856E-03,   9.01054E-09
C:/temp/dataset/test2/16_4.odb,Step-1,Increment      1: Step Time =    1.000,"PART-1-1",            95,           -3.,         1.875,            0.,NA,NA,"",   35.4427E-03,  -35.4373E-03,  -618.470E-06,   6.47170E-09
C:/temp/dataset/test2/16_4.odb,Step-1,Increment      1: Step Time =    1.000,"PART-1-1",            96,           -5.,         1.875,            0.,NA,NA,"",   35.5207E-03,  -35.4365E-03,  -2.44551E-03,   625.699E-12
C:/temp/dataset/test2/16_4.odb,Step-1,Increment      1: Step Time =    1.000,"PART-1-1",            97,            5.,            0.,            0.,NA,NA,"",   34.3850E-03,  -33.7279E-03,   6.69042E-03,   7.99876E-09
C:/temp/dataset/test2/16_4.odb,Step-1,Increment      1: Step Time =    1.000,"PART-1-1",            98,            3.,            0.,            0.,NA,NA,"",   34.0759E-03,  -33.7270E-03,   4.86340E-03,   20.2568E-09
C:/temp/dataset/test2/16_4.odb,Step-1,Increment      1: Step Time =    1.000,"PART-1-1",            99,            1.,            0.,            0.,NA,NA,"",   33.8626E-03,  -33.7262E-03,   3.03635E-03,   25.4390E-09
C:/temp/dataset/test2/16_4.odb,Step-1,Increment      1: Step Time =    1.000,"PART-1-1",           100,           -1.,            0.,            0.,NA,NA,"",   33.7470E-03,  -33.7253E-03,   1.20932E-03,   25.4156E-09
C:/temp/dataset/test2/16_4.odb,Step-1,Increment      1: Step Time =    1.000,"PART-1-1",           101,           -3.,            0.,            0.,NA,NA,"",   33.7301E-03,  -33.7244E-03,  -617.687E-06,   20.2842E-09
C:/temp/dataset/test2/16_4.odb,Step-1,Increment      1: Step Time =    1.000,"PART-1-1",           102,           -5.,            0.,            0.,NA,NA,"",   33.8121E-03,  -33.7236E-03,  -2.44472E-03,   8.26036E-09
C:/temp/dataset/test2/16_4.odb,Step-1,Increment      1: Step Time =    1.000,"PART-1-1",           103,            5.,        -1.875,            0.,NA,NA,"",   32.7068E-03,  -32.0151E-03,   6.69123E-03,   33.5653E-09
C:/temp/dataset/test2/16_4.odb,Step-1,Increment      1: Step Time =    1.000,"PART-1-1",           104,            3.,        -1.875,            0.,NA,NA,"",   32.3817E-03,  -32.0142E-03,   4.86418E-03,   50.2594E-09
C:/temp/dataset/test2/16_4.odb,Step-1,Increment      1: Step Time =    1.000,"PART-1-1",           105,            1.,        -1.875,            0.,NA,NA,"",   32.1571E-03,  -32.0133E-03,   3.03708E-03,   59.1812E-09
C:/temp/dataset/test2/16_4.odb,Step-1,Increment      1: Step Time =    1.000,"PART-1-1",           106,           -1.,        -1.875,            0.,NA,NA,"",   32.0353E-03,  -32.0124E-03,   1.21006E-03,   59.1464E-09
C:/temp/dataset/test2/16_4.odb,Step-1,Increment      1: Step Time =    1.000,"PART-1-1",           107,           -3.,        -1.875,            0.,NA,NA,"",   32.0175E-03,  -32.0115E-03,  -616.902E-06,   50.2795E-09
C:/temp/dataset/test2/16_4.odb,Step-1,Increment      1: Step Time =    1.000,"PART-1-1",           108,           -5.,        -1.875,            0.,NA,NA,"",   32.1039E-03,  -32.0107E-03,  -2.44391E-03,   33.8605E-09
C:/temp/dataset/test2/16_4.odb,Step-1,Increment      1: Step Time =    1.000,"PART-1-1",           109,            5.,         -3.75,            0.,NA,NA,"",   31.0324E-03,  -30.3023E-03,   6.69211E-03,   96.0520E-09
C:/temp/dataset/test2/16_4.odb,Step-1,Increment      1: Step Time =    1.000,"PART-1-1",           110,            3.,         -3.75,            0.,NA,NA,"",   30.6895E-03,  -30.3015E-03,   4.86497E-03,   103.865E-09
C:/temp/dataset/test2/16_4.odb,Step-1,Increment      1: Step Time =    1.000,"PART-1-1",           111,            1.,         -3.75,            0.,NA,NA,"",   30.4524E-03,  -30.3005E-03,   3.03776E-03,   115.755E-09
C:/temp/dataset/test2/16_4.odb,Step-1,Increment      1: Step Time =    1.000,"PART-1-1",           112,           -1.,         -3.75,            0.,NA,NA,"",   30.3237E-03,  -30.2996E-03,   1.21073E-03,   115.693E-09
C:/temp/dataset/test2/16_4.odb,Step-1,Increment      1: Step Time =    1.000,"PART-1-1",           113,           -3.,         -3.75,            0.,NA,NA,"",   30.3049E-03,  -30.2986E-03,  -616.115E-06,   103.848E-09
C:/temp/dataset/test2/16_4.odb,Step-1,Increment      1: Step Time =    1.000,"PART-1-1",           114,           -5.,         -3.75,            0.,NA,NA,"",   30.3962E-03,  -30.2978E-03,  -2.44303E-03,   96.3450E-09
C:/temp/dataset/test2/16_4.odb,Step-1,Increment      1: Step Time =    1.000,"PART-1-1",           115,            5.,        -5.625,            0.,NA,NA,"",   29.3624E-03,  -28.5894E-03,   6.69315E-03,   223.030E-09
C:/temp/dataset/test2/16_4.odb,Step-1,Increment      1: Step Time =    1.000,"PART-1-1",           116,            3.,        -5.625,            0.,NA,NA,"",   28.9998E-03,  -28.5887E-03,   4.86576E-03,   174.110E-09
C:/temp/dataset/test2/16_4.odb,Step-1,Increment      1: Step Time =    1.000,"PART-1-1",           117,            1.,        -5.625,            0.,NA,NA,"",   28.7487E-03,  -28.5877E-03,   3.03835E-03,   182.539E-09
C:/temp/dataset/test2/16_4.odb,Step-1,Increment      1: Step Time =    1.000,"PART-1-1",           118,           -1.,        -5.625,            0.,NA,NA,"",   28.6123E-03,  -28.5867E-03,   1.21133E-03,   182.309E-09
C:/temp/dataset/test2/16_4.odb,Step-1,Increment      1: Step Time =    1.000,"PART-1-1",           119,           -3.,        -5.625,            0.,NA,NA,"",   28.5924E-03,  -28.5857E-03,  -615.322E-06,   173.762E-09
C:/temp/dataset/test2/16_4.odb,Step-1,Increment      1: Step Time =    1.000,"PART-1-1",           120,           -5.,        -5.625,            0.,NA,NA,"",   28.6891E-03,  -28.5850E-03,  -2.44199E-03,   223.252E-09
C:/temp/dataset/test2/16_4.odb,Step-1,Increment      1: Step Time =    1.000,"PART-1-1",           121,            5.,          -7.5,            0.,NA,NA,"",   27.6975E-03,  -26.8763E-03,   6.69447E-03,   430.373E-09
C:/temp/dataset/test2/16_4.odb,Step-1,Increment      1: Step Time =    1.000,"PART-1-1",           122,            3.,          -7.5,            0.,NA,NA,"",   27.3127E-03,  -26.8757E-03,   4.86656E-03,   199.311E-09
C:/temp/dataset/test2/16_4.odb,Step-1,Increment      1: Step Time =    1.000,"PART-1-1",           123,            1.,          -7.5,            0.,NA,NA,"",   27.0461E-03,  -26.8748E-03,   3.03888E-03,   205.550E-09
C:/temp/dataset/test2/16_4.odb,Step-1,Increment      1: Step Time =    1.000,"PART-1-1",           124,           -1.,          -7.5,            0.,NA,NA,"",   26.9012E-03,  -26.8739E-03,   1.21185E-03,   204.855E-09
C:/temp/dataset/test2/16_4.odb,Step-1,Increment      1: Step Time =    1.000,"PART-1-1",           125,           -3.,          -7.5,            0.,NA,NA,"",   26.8801E-03,  -26.8731E-03,  -614.521E-06,   197.899E-09
C:/temp/dataset/test2/16_4.odb,Step-1,Increment      1: Step Time =    1.000,"PART-1-1",           126,           -5.,          -7.5,            0.,NA,NA,"",   26.9831E-03,  -26.8724E-03,  -2.44067E-03,   429.450E-09
C:/temp/dataset/test2/16_4.odb,Step-1,Increment      1: Step Time =    1.000,"PART-1-1",           127,            5.,        -9.375,            0.,NA,NA,"",   26.0381E-03,  -25.1624E-03,   6.69619E-03,   647.884E-09
C:/temp/dataset/test2/16_4.odb,Step-1,Increment      1: Step Time =    1.000,"PART-1-1",           128,            3.,        -9.375,            0.,NA,NA,"",   25.6283E-03,  -25.1619E-03,   4.86737E-03,   146.928E-09
C:/temp/dataset/test2/16_4.odb,Step-1,Increment      1: Step Time =    1.000,"PART-1-1",           129,            1.,        -9.375,            0.,NA,NA,"",   25.3445E-03,  -25.1615E-03,   3.03955E-03,   430.183E-09
C:/temp/dataset/test2/16_4.odb,Step-1,Increment      1: Step Time =    1.000,"PART-1-1",           130,           -1.,        -9.375,            0.,NA,NA,"",   25.1907E-03,  -25.1615E-03,   1.21252E-03,   430.553E-09
C:/temp/dataset/test2/16_4.odb,Step-1,Increment      1: Step Time =    1.000,"PART-1-1",           131,           -3.,        -9.375,            0.,NA,NA,"",   25.1687E-03,  -25.1612E-03,  -613.711E-06,   150.209E-09
C:/temp/dataset/test2/16_4.odb,Step-1,Increment      1: Step Time =    1.000,"PART-1-1",           132,           -5.,        -9.375,            0.,NA,NA,"",   25.2786E-03,  -25.1607E-03,  -2.43896E-03,   642.892E-09
C:/temp/dataset/test2/16_4.odb,Step-1,Increment      1: Step Time =    1.000,"PART-1-1",           133,            5.,        -11.25,            0.,NA,NA,"",   24.3846E-03,  -23.4466E-03,   6.69813E-03,   524.115E-09
C:/temp/dataset/test2/16_4.odb,Step-1,Increment      1: Step Time =    1.000,"PART-1-1",           134,            3.,        -11.25,            0.,NA,NA,"",   23.9462E-03,  -23.4461E-03,   4.86815E-03,   1.23527E-06
C:/temp/dataset/test2/16_4.odb,Step-1,Increment      1: Step Time =    1.000,"PART-1-1",           135,            1.,        -11.25,            0.,NA,NA,"",   23.6437E-03,  -23.4474E-03,   3.04113E-03,   1.89375E-06
C:/temp/dataset/test2/16_4.odb,Step-1,Increment      1: Step Time =    1.000,"PART-1-1",           136,           -1.,        -11.25,            0.,NA,NA,"",   23.4814E-03,  -23.4500E-03,   1.21412E-03,   1.89355E-06
C:/temp/dataset/test2/16_4.odb,Step-1,Increment      1: Step Time =    1.000,"PART-1-1",           137,           -3.,        -11.25,            0.,NA,NA,"",   23.4593E-03,  -23.4513E-03,  -612.921E-06,   1.24737E-06
C:/temp/dataset/test2/16_4.odb,Step-1,Increment      1: Step Time =    1.000,"PART-1-1",           138,           -5.,        -11.25,            0.,NA,NA,"",   23.5771E-03,  -23.4508E-03,  -2.43704E-03,   502.335E-09
C:/temp/dataset/test2/16_4.odb,Step-1,Increment      1: Step Time =    1.000,"PART-1-1",           139,            5.,       -13.125,            0.,NA,NA,"",   22.7364E-03,  -21.7271E-03,   6.69904E-03,   1.11946E-06
C:/temp/dataset/test2/16_4.odb,Step-1,Increment      1: Step Time =    1.000,"PART-1-1",           140,            3.,       -13.125,            0.,NA,NA,"",   22.2650E-03,  -21.7261E-03,   4.86886E-03,   4.55758E-06
C:/temp/dataset/test2/16_4.odb,Step-1,Increment      1: Step Time =    1.000,"PART-1-1",           141,            1.,       -13.125,            0.,NA,NA,"",   21.9437E-03,  -21.7313E-03,   3.04572E-03,   5.94712E-06
C:/temp/dataset/test2/16_4.odb,Step-1,Increment      1: Step Time =    1.000,"PART-1-1",           142,           -1.,       -13.125,            0.,NA,NA,"",   21.7746E-03,  -21.7404E-03,   1.21870E-03,   5.93410E-06
C:/temp/dataset/test2/16_4.odb,Step-1,Increment      1: Step Time =    1.000,"PART-1-1",           143,           -3.,       -13.125,            0.,NA,NA,"",   21.7542E-03,  -21.7456E-03,  -612.210E-06,   4.56129E-06
C:/temp/dataset/test2/16_4.odb,Step-1,Increment      1: Step Time =    1.000,"PART-1-1",           144,           -5.,       -13.125,            0.,NA,NA,"",   21.8806E-03,  -21.7445E-03,  -2.43621E-03,   1.17027E-06
C:/temp/dataset/test2/16_4.odb,Step-1,Increment      1: Step Time =    1.000,"PART-1-1",           145,            5.,          -15.,            0.,NA,NA,"",   21.0924E-03,  -20.0019E-03,   6.69448E-03,   6.91253E-06
C:/temp/dataset/test2/16_4.odb,Step-1,Increment      1: Step Time =    1.000,"PART-1-1",           146,            3.,          -15.,            0.,NA,NA,"",   20.5829E-03,  -19.9986E-03,   4.86922E-03,   12.4704E-06
C:/temp/dataset/test2/16_4.odb,Step-1,Increment      1: Step Time =    1.000,"PART-1-1",           147,            1.,          -15.,            0.,NA,NA,"",   20.2443E-03,  -20.0120E-03,   3.05787E-03,   15.0076E-06
C:/temp/dataset/test2/16_4.odb,Step-1,Increment      1: Step Time =    1.000,"PART-1-1",           148,           -1.,          -15.,            0.,NA,NA,"",   20.0721E-03,  -20.0343E-03,   1.23065E-03,   14.8565E-06
C:/temp/dataset/test2/16_4.odb,Step-1,Increment      1: Step Time =    1.000,"PART-1-1",           149,           -3.,          -15.,            0.,NA,NA,"",   20.0564E-03,  -20.0470E-03,  -611.887E-06,   12.2589E-06
C:/temp/dataset/test2/16_4.odb,Step-1,Increment      1: Step Time =    1.000,"PART-1-1",           150,           -5.,          -15.,            0.,NA,NA,"",   20.1919E-03,  -20.0438E-03,  -2.44081E-03,   6.97906E-06
C:/temp/dataset/test2/16_4.odb,Step-1,Increment      1: Step Time =    1.000,"PART-1-1",           151,            5.,       -16.875,            0.,NA,NA,"",   19.4515E-03,  -18.2707E-03,   6.67391E-03,   22.6370E-06
C:/temp/dataset/test2/16_4.odb,Step-1,Increment      1: Step Time =    1.000,"PART-1-1",           152,            3.,       -16.875,            0.,NA,NA,"",   18.8997E-03,  -18.2616E-03,   4.86952E-03,   28.4192E-06
C:/temp/dataset/test2/16_4.odb,Step-1,Increment      1: Step Time =    1.000,"PART-1-1",           153,            1.,       -16.875,            0.,NA,NA,"",   18.5481E-03,  -18.2895E-03,   3.08652E-03,   31.9252E-06
C:/temp/dataset/test2/16_4.odb,Step-1,Increment      1: Step Time =    1.000,"PART-1-1",           154,           -1.,       -16.875,            0.,NA,NA,"",   18.3763E-03,  -18.3332E-03,   1.25795E-03,   31.2048E-06
C:/temp/dataset/test2/16_4.odb,Step-1,Increment      1: Step Time =    1.000,"PART-1-1",           155,           -3.,       -16.875,            0.,NA,NA,"",   18.3675E-03,  -18.3573E-03,  -612.525E-06,   26.8569E-06
C:/temp/dataset/test2/16_4.odb,Step-1,Increment      1: Step Time =    1.000,"PART-1-1",           156,           -5.,       -16.875,            0.,NA,NA,"",   18.5120E-03,  -18.3477E-03,  -2.46145E-03,   22.0887E-06
C:/temp/dataset/test2/16_4.odb,Step-1,Increment      1: Step Time =    1.000,"PART-1-1",           157,            5.,        -18.75,            0.,NA,NA,"",   17.8175E-03,  -16.5462E-03,   6.60942E-03,   59.2514E-06
C:/temp/dataset/test2/16_4.odb,Step-1,Increment      1: Step Time =    1.000,"PART-1-1",           158,            3.,        -18.75,            0.,NA,NA,"",   17.2252E-03,  -16.5227E-03,   4.86892E-03,   54.6429E-06
C:/temp/dataset/test2/16_4.odb,Step-1,Increment      1: Step Time =    1.000,"PART-1-1",           159,            1.,        -18.75,            0.,NA,NA,"",   16.8647E-03,  -16.5691E-03,   3.14354E-03,   56.8839E-06
C:/temp/dataset/test2/16_4.odb,Step-1,Increment      1: Step Time =    1.000,"PART-1-1",           160,           -1.,        -18.75,            0.,NA,NA,"",   16.6859E-03,  -16.6344E-03,   1.30888E-03,   53.3825E-06
C:/temp/dataset/test2/16_4.odb,Step-1,Increment      1: Step Time =    1.000,"PART-1-1",           161,           -3.,        -18.75,            0.,NA,NA,"",   16.6784E-03,  -16.6670E-03,  -616.491E-06,   47.7697E-06
C:/temp/dataset/test2/16_4.odb,Step-1,Increment      1: Step Time =    1.000,"PART-1-1",           162,           -5.,        -18.75,            0.,NA,NA,"",   16.8325E-03,  -16.6428E-03,  -2.52027E-03,   54.2359E-06
C:/temp/dataset/test2/16_4.odb,Step-1,Increment      1: Step Time =    1.000,"PART-1-1",           163,            5.,       -20.625,            0.,NA,NA,"",   16.2141E-03,  -14.8698E-03,   6.46431E-03,   131.784E-06
C:/temp/dataset/test2/16_4.odb,Step-1,Increment      1: Step Time =    1.000,"PART-1-1",           164,            3.,       -20.625,            0.,NA,NA,"",   15.6061E-03,  -14.8235E-03,   4.87983E-03,   87.1424E-06
C:/temp/dataset/test2/16_4.odb,Step-1,Increment      1: Step Time =    1.000,"PART-1-1",           165,            1.,       -20.625,            0.,NA,NA,"",   15.2259E-03,  -14.8771E-03,   3.24060E-03,   78.7960E-06
C:/temp/dataset/test2/16_4.odb,Step-1,Increment      1: Step Time =    1.000,"PART-1-1",           166,           -1.,       -20.625,            0.,NA,NA,"",   14.9881E-03,  -14.9241E-03,   1.38439E-03,   67.8918E-06
C:/temp/dataset/test2/16_4.odb,Step-1,Increment      1: Step Time =    1.000,"PART-1-1",           167,           -3.,       -20.625,            0.,NA,NA,"",   14.9484E-03,  -14.9351E-03,  -628.404E-06,   60.2013E-06
C:/temp/dataset/test2/16_4.odb,Step-1,Increment      1: Step Time =    1.000,"PART-1-1",           168,           -5.,       -20.625,            0.,NA,NA,"",   15.1171E-03,  -14.8829E-03,  -2.65058E-03,   105.912E-06
C:/temp/dataset/test2/16_4.odb,Step-1,Increment      1: Step Time =    1.000,"PART-1-1",           169,            5.,         -22.5,            0.,NA,NA,"",   14.7429E-03,  -13.4192E-03,   6.10538E-03,   271.499E-06
C:/temp/dataset/test2/16_4.odb,Step-1,Increment      1: Step Time =    1.000,"PART-1-1",           170,            3.,         -22.5,            0.,NA,NA,"",   14.1802E-03,  -13.3092E-03,   4.89324E-03,   73.8282E-06
C:/temp/dataset/test2/16_4.odb,Step-1,Increment      1: Step Time =    1.000,"PART-1-1",           171,            1.,         -22.5,            0.,NA,NA,"",   13.6787E-03,  -13.2660E-03,   3.33442E-03,   110.113E-06
C:/temp/dataset/test2/16_4.odb,Step-1,Increment      1: Step Time =    1.000,"PART-1-1",           172,           -1.,         -22.5,            0.,NA,NA,"",   13.2152E-03,  -13.1373E-03,   1.43266E-03,   84.5225E-06
C:/temp/dataset/test2/16_4.odb,Step-1,Increment      1: Step Time =    1.000,"PART-1-1",           173,           -3.,         -22.5,            0.,NA,NA,"",   13.0600E-03,  -13.0435E-03,  -656.114E-06,   36.5485E-06
C:/temp/dataset/test2/16_4.odb,Step-1,Increment      1: Step Time =    1.000,"PART-1-1",           174,           -5.,         -22.5,            0.,NA,NA,"",   13.2711E-03,  -12.9548E-03,  -2.88033E-03,   161.006E-06
C:/temp/dataset/test2/16_4.odb,Step-1,Increment      1: Step Time =    1.000,"PART-1-1",           175,            5.,       -24.375,            0.,NA,NA,"",   13.8440E-03,  -12.6695E-03,   5.58043E-03,   690.505E-06
C:/temp/dataset/test2/16_4.odb,Step-1,Increment      1: Step Time =    1.000,"PART-1-1",           176,            3.,       -24.375,            0.,NA,NA,"",   13.3168E-03,  -12.3254E-03,   5.04188E-03,   529.807E-06
C:/temp/dataset/test2/16_4.odb,Step-1,Increment      1: Step Time =    1.000,"PART-1-1",           177,            1.,       -24.375,            0.,NA,NA,"",   12.2269E-03,  -11.7852E-03,   3.25677E-03,   461.614E-06
C:/temp/dataset/test2/16_4.odb,Step-1,Increment      1: Step Time =    1.000,"PART-1-1",           178,           -1.,       -24.375,            0.,NA,NA,"",   11.1701E-03,  -11.0908E-03,   1.32833E-03,   349.411E-06
C:/temp/dataset/test2/16_4.odb,Step-1,Increment      1: Step Time =    1.000,"PART-1-1",           179,           -3.,       -24.375,            0.,NA,NA,"",   10.7805E-03,  -10.7574E-03,  -705.604E-06,   194.713E-06
C:/temp/dataset/test2/16_4.odb,Step-1,Increment      1: Step Time =    1.000,"PART-1-1",           180,           -5.,       -24.375,            0.,NA,NA,"",   11.1250E-03,  -10.6649E-03,  -3.16633E-03,   135.414E-06
C:/temp/dataset/test2/16_4.odb,Step-1,Increment      1: Step Time =    1.000,"PART-1-1",           181,            5.,        -26.25,            0.,NA,NA,"",   16.1114E-03,  -15.5406E-03,   4.25070E-03,   2.06587E-03
C:/temp/dataset/test2/16_4.odb,Step-1,Increment      1: Step Time =    1.000,"PART-1-1",           182,            3.,        -26.25,            0.,NA,NA,"",   13.1556E-03,  -12.4826E-03,   4.15376E-03,   2.29161E-03
C:/temp/dataset/test2/16_4.odb,Step-1,Increment      1: Step Time =    1.000,"PART-1-1",           183,            1.,        -26.25,            0.,NA,NA,"",   10.1459E-03,  -9.86300E-03,   2.37909E-03,   1.27547E-03
C:/temp/dataset/test2/16_4.odb,Step-1,Increment      1: Step Time =    1.000,"PART-1-1",           184,           -1.,        -26.25,            0.,NA,NA,"",   8.40787E-03,  -8.35800E-03,   914.455E-06,   899.096E-06
C:/temp/dataset/test2/16_4.odb,Step-1,Increment      1: Step Time =    1.000,"PART-1-1",           185,           -3.,        -26.25,            0.,NA,NA,"",   7.77013E-03,  -7.74168E-03,  -664.291E-06,   643.496E-06
C:/temp/dataset/test2/16_4.odb,Step-1,Increment      1: Step Time =    1.000,"PART-1-1",           186,           -5.,        -26.25,            0.,NA,NA,"",   8.41733E-03,  -7.75119E-03,  -3.28185E-03,   86.4396E-06
C:/temp/dataset/test2/16_4.odb,Step-1,Increment      1: Step Time =    1.000,"PART-1-1",           187,            5.,       -28.125,            0.,NA,NA,"",   15.9358E-03,  -14.9463E-03,   5.52805E-03,   5.16876E-03
C:/temp/dataset/test2/16_4.odb,Step-1,Increment      1: Step Time =    1.000,"PART-1-1",           188,            3.,       -28.125,            0.,NA,NA,"",   9.95346E-03,  -9.73244E-03,   2.08591E-03,   3.95854E-03
C:/temp/dataset/test2/16_4.odb,Step-1,Increment      1: Step Time =    1.000,"PART-1-1",           189,            1.,       -28.125,            0.,NA,NA,"",   6.06618E-03,  -6.00703E-03,   845.096E-06,   2.15134E-03
C:/temp/dataset/test2/16_4.odb,Step-1,Increment      1: Step Time =    1.000,"PART-1-1",           190,           -1.,       -28.125,            0.,NA,NA,"",   4.50360E-03,  -4.49546E-03,   270.578E-06,   1.49670E-03
C:/temp/dataset/test2/16_4.odb,Step-1,Increment      1: Step Time =    1.000,"PART-1-1",           191,           -3.,       -28.125,            0.,NA,NA,"",   3.96826E-03,  -3.92971E-03,  -551.780E-06,   1.31789E-03
C:/temp/dataset/test2/16_4.odb,Step-1,Increment      1: Step Time =    1.000,"PART-1-1",           192,           -5.,       -28.125,            0.,NA,NA,"",   4.98716E-03,  -4.16830E-03,  -2.73806E-03,   928.079E-06
C:/temp/dataset/test2/16_4.odb,Step-1,Increment      1: Step Time =    1.000,"PART-1-1",           193,            5.,          -30.,            0.,NA,NA,"",            0.,  -2.18535E-39,   3.02383E-39,   9.32775E-03
C:/temp/dataset/test2/16_4.odb,Step-1,Increment      1: Step Time =    1.000,"PART-1-1",           194,            3.,          -30.,            0.,NA,NA,"",            0.,  -2.72014E-39,   213.212E-42,   3.52595E-03
C:/temp/dataset/test2/16_4.odb,Step-1,Increment      1: Step Time =    1.000,"PART-1-1",           195,            1.,          -30.,            0.,NA,NA,"",            0.,  -1.22693E-39,   384.762E-42,   2.31813E-03
C:/temp/dataset/test2/16_4.odb,Step-1,Increment      1: Step Time =    1.000,"PART-1-1",           196,           -1.,          -30.,            0.,NA,NA,"",            0.,  -808.863E-42,   203.537E-42,   1.52136E-03
C:/temp/dataset/test2/16_4.odb,Step-1,Increment      1: Step Time =    1.000,"PART-1-1",           197,           -3.,          -30.,            0.,NA,NA,"",            0.,  -880.008E-42,  -178.042E-42,   1.06250E-03
C:/temp/dataset/test2/16_4.odb,Step-1,Increment      1: Step Time =    1.000,"PART-1-1",           198,           -5.,          -30.,            0.,NA,NA,"",            0.,  -652.687E-42,  -1.06659E-39,   2.59683E-03
C:/temp/dataset/test2/16_4.odb,Step-1,Increment      1: Step Time =    1.000,"PART-1-1",           199,            4.,           30.,            0.,NA,NA,"",   61.4040E-03,  -61.1328E-03,   5.76440E-03,   14.9623E-12
C:/temp/dataset/test2/16_4.odb,Step-1,Increment      1: Step Time =    1.000,"PART-1-1",           200,            3.,       29.0625,            0.,NA,NA,"",   60.4709E-03,  -60.2760E-03,   4.85127E-03,   16.7155E-12
C:/temp/dataset/test2/16_4.odb,Step-1,Increment      1: Step Time =    1.000,"PART-1-1",           201,            4.,        28.125,            0.,NA,NA,"",   59.6990E-03,  -59.4200E-03,   5.76518E-03,   21.3626E-12
C:/temp/dataset/test2/16_4.odb,Step-1,Increment      1: Step Time =    1.000,"PART-1-1",           202,            5.,       29.0625,            0.,NA,NA,"",   60.6457E-03,  -60.2768E-03,   6.67830E-03,   22.2197E-12
C:/temp/dataset/test2/16_4.odb,Step-1,Increment      1: Step Time =    1.000,"PART-1-1",           203,            2.,           30.,            0.,NA,NA,"",   61.2587E-03,  -61.1320E-03,   3.93737E-03,   15.8789E-12
C:/temp/dataset/test2/16_4.odb,Step-1,Increment      1: Step Time =    1.000,"PART-1-1",           204,            1.,       29.0625,            0.,NA,NA,"",   60.3510E-03,  -60.2752E-03,   3.02424E-03,   18.8730E-12
C:/temp/dataset/test2/16_4.odb,Step-1,Increment      1: Step Time =    1.000,"PART-1-1",           205,            2.,        28.125,            0.,NA,NA,"",   59.5495E-03,  -59.4192E-03,   3.93815E-03,   20.0996E-12
C:/temp/dataset/test2/16_4.odb,Step-1,Increment      1: Step Time =    1.000,"PART-1-1",           206,            0.,           30.,            0.,NA,NA,"",   61.1676E-03,  -61.1312E-03,   2.11034E-03,   17.9421E-12
C:/temp/dataset/test2/16_4.odb,Step-1,Increment      1: Step Time =    1.000,"PART-1-1",           207,           -1.,       29.0625,            0.,NA,NA,"",   60.2862E-03,  -60.2743E-03,   1.19721E-03,   20.5863E-12
C:/temp/dataset/test2/16_4.odb,Step-1,Increment      1: Step Time =    1.000,"PART-1-1",           208,            0.,        28.125,            0.,NA,NA,"",   59.4558E-03,  -59.4183E-03,   2.11112E-03,   21.3881E-12
C:/temp/dataset/test2/16_4.odb,Step-1,Increment      1: Step Time =    1.000,"PART-1-1",           209,           -2.,           30.,            0.,NA,NA,"",   61.1310E-03,  -61.1303E-03,   283.309E-06,   21.8310E-12
C:/temp/dataset/test2/16_4.odb,Step-1,Increment      1: Step Time =    1.000,"PART-1-1",           210,           -3.,       29.0625,            0.,NA,NA,"",   60.2768E-03,  -60.2735E-03,  -629.815E-06,   20.8416E-12
C:/temp/dataset/test2/16_4.odb,Step-1,Increment      1: Step Time =    1.000,"PART-1-1",           211,           -2.,        28.125,            0.,NA,NA,"",   59.4182E-03,  -59.4175E-03,   284.091E-06,   19.0770E-12
C:/temp/dataset/test2/16_4.odb,Step-1,Increment      1: Step Time =    1.000,"PART-1-1",           212,           -4.,           30.,            0.,NA,NA,"",   61.1490E-03,  -61.1295E-03,  -1.54372E-03,   22.1730E-12
C:/temp/dataset/test2/16_4.odb,Step-1,Increment      1: Step Time =    1.000,"PART-1-1",           213,           -5.,       29.0625,            0.,NA,NA,"",   60.3227E-03,  -60.2727E-03,  -2.45684E-03,   15.4253E-12
C:/temp/dataset/test2/16_4.odb,Step-1,Increment      1: Step Time =    1.000,"PART-1-1",           214,           -4.,        28.125,            0.,NA,NA,"",   59.4367E-03,  -59.4167E-03,  -1.54294E-03,   13.4552E-12
C:/temp/dataset/test2/16_4.odb,Step-1,Increment      1: Step Time =    1.000,"PART-1-1",           215,            3.,       27.1875,            0.,NA,NA,"",   58.7638E-03,  -58.5632E-03,   4.85206E-03,   21.0184E-12
C:/temp/dataset/test2/16_4.odb,Step-1,Increment      1: Step Time =    1.000,"PART-1-1",           216,            4.,         26.25,            0.,NA,NA,"",   57.9945E-03,  -57.7072E-03,   5.76596E-03,   25.9166E-12
C:/temp/dataset/test2/16_4.odb,Step-1,Increment      1: Step Time =    1.000,"PART-1-1",           217,            5.,       27.1875,            0.,NA,NA,"",   58.9436E-03,  -58.5640E-03,   6.67909E-03,   27.3723E-12
C:/temp/dataset/test2/16_4.odb,Step-1,Increment      1: Step Time =    1.000,"PART-1-1",           218,            1.,       27.1875,            0.,NA,NA,"",   58.6404E-03,  -58.5623E-03,   3.02503E-03,   21.8496E-12
C:/temp/dataset/test2/16_4.odb,Step-1,Increment      1: Step Time =    1.000,"PART-1-1",           219,            2.,         26.25,            0.,NA,NA,"",   57.8406E-03,  -57.7063E-03,   3.93893E-03,   22.2836E-12
C:/temp/dataset/test2/16_4.odb,Step-1,Increment      1: Step Time =    1.000,"PART-1-1",           220,           -1.,       27.1875,            0.,NA,NA,"",   58.5737E-03,  -58.5615E-03,   1.19800E-03,   20.7662E-12
C:/temp/dataset/test2/16_4.odb,Step-1,Increment      1: Step Time =    1.000,"PART-1-1",           221,            0.,         26.25,            0.,NA,NA,"",   57.7441E-03,  -57.7055E-03,   2.11190E-03,   21.2360E-12
C:/temp/dataset/test2/16_4.odb,Step-1,Increment      1: Step Time =    1.000,"PART-1-1",           222,           -3.,       27.1875,            0.,NA,NA,"",   58.5640E-03,  -58.5607E-03,  -629.032E-06,   15.2347E-12
C:/temp/dataset/test2/16_4.odb,Step-1,Increment      1: Step Time =    1.000,"PART-1-1",           223,           -2.,         26.25,            0.,NA,NA,"",   57.7054E-03,  -57.7046E-03,   284.874E-06,   17.0923E-12
C:/temp/dataset/test2/16_4.odb,Step-1,Increment      1: Step Time =    1.000,"PART-1-1",           224,           -5.,       27.1875,            0.,NA,NA,"",   58.6113E-03,  -58.5598E-03,  -2.45606E-03,   17.0862E-12
C:/temp/dataset/test2/16_4.odb,Step-1,Increment      1: Step Time =    1.000,"PART-1-1",           225,           -4.,         26.25,            0.,NA,NA,"",   57.7244E-03,  -57.7038E-03,  -1.54216E-03,   14.9781E-12
C:/temp/dataset/test2/16_4.odb,Step-1,Increment      1: Step Time =    1.000,"PART-1-1",           226,            3.,       25.3125,            0.,NA,NA,"",   57.0571E-03,  -56.8503E-03,   4.85284E-03,   25.3727E-12
C:/temp/dataset/test2/16_4.odb,Step-1,Increment      1: Step Time =    1.000,"PART-1-1",           227,            4.,        24.375,            0.,NA,NA,"",   56.2905E-03,  -55.9943E-03,   5.76674E-03,   31.2886E-12
C:/temp/dataset/test2/16_4.odb,Step-1,Increment      1: Step Time =    1.000,"PART-1-1",           228,            5.,       25.3125,            0.,NA,NA,"",   57.2422E-03,  -56.8511E-03,   6.67987E-03,   33.0509E-12
C:/temp/dataset/test2/16_4.odb,Step-1,Increment      1: Step Time =    1.000,"PART-1-1",           229,            1.,       25.3125,            0.,NA,NA,"",   56.9299E-03,  -56.8495E-03,   3.02581E-03,   22.7401E-12
C:/temp/dataset/test2/16_4.odb,Step-1,Increment      1: Step Time =    1.000,"PART-1-1",           230,            2.,        24.375,            0.,NA,NA,"",   56.1319E-03,  -55.9935E-03,   3.93971E-03,   24.7427E-12
C:/temp/dataset/test2/16_4.odb,Step-1,Increment      1: Step Time =    1.000,"PART-1-1",           231,           -1.,       25.3125,            0.,NA,NA,"",   56.8613E-03,  -56.8486E-03,   1.19878E-03,   19.8431E-12
C:/temp/dataset/test2/16_4.odb,Step-1,Increment      1: Step Time =    1.000,"PART-1-1",           232,            0.,        24.375,            0.,NA,NA,"",   56.0325E-03,  -55.9926E-03,   2.11269E-03,   20.8966E-12
C:/temp/dataset/test2/16_4.odb,Step-1,Increment      1: Step Time =    1.000,"PART-1-1",           233,           -3.,       25.3125,            0.,NA,NA,"",   56.8513E-03,  -56.8478E-03,  -628.250E-06,   15.8334E-12
C:/temp/dataset/test2/16_4.odb,Step-1,Increment      1: Step Time =    1.000,"PART-1-1",           234,           -2.,        24.375,            0.,NA,NA,"",   55.9925E-03,  -55.9918E-03,   285.656E-06,   17.1381E-12
C:/temp/dataset/test2/16_4.odb,Step-1,Increment      1: Step Time =    1.000,"PART-1-1",           235,           -5.,       25.3125,            0.,NA,NA,"",   56.9000E-03,  -56.8470E-03,  -2.45528E-03,   20.5912E-12
C:/temp/dataset/test2/16_4.odb,Step-1,Increment      1: Step Time =    1.000,"PART-1-1",           236,           -4.,        24.375,            0.,NA,NA,"",   56.0122E-03,  -55.9910E-03,  -1.54137E-03,   18.6505E-12
C:/temp/dataset/test2/16_4.odb,Step-1,Increment      1: Step Time =    1.000,"PART-1-1",           237,            3.,       23.4375,            0.,NA,NA,"",   55.3507E-03,  -55.1375E-03,   4.85362E-03,   29.6570E-12
C:/temp/dataset/test2/16_4.odb,Step-1,Increment      1: Step Time =    1.000,"PART-1-1",           238,            4.,          22.5,            0.,NA,NA,"",   54.5870E-03,  -54.2815E-03,   5.76753E-03,   36.8536E-12
C:/temp/dataset/test2/16_4.odb,Step-1,Increment      1: Step Time =    1.000,"PART-1-1",           239,            5.,       23.4375,            0.,NA,NA,"",   55.5416E-03,  -55.1383E-03,   6.68065E-03,   39.5395E-12
C:/temp/dataset/test2/16_4.odb,Step-1,Increment      1: Step Time =    1.000,"PART-1-1",           240,            1.,       23.4375,            0.,NA,NA,"",   55.2196E-03,  -55.1366E-03,   3.02659E-03,   23.7136E-12
C:/temp/dataset/test2/16_4.odb,Step-1,Increment      1: Step Time =    1.000,"PART-1-1",           241,            2.,          22.5,            0.,NA,NA,"",   54.4235E-03,  -54.2806E-03,   3.94050E-03,   27.4620E-12
C:/temp/dataset/test2/16_4.odb,Step-1,Increment      1: Step Time =    1.000,"PART-1-1",           242,           -1.,       23.4375,            0.,NA,NA,"",   55.1489E-03,  -55.1358E-03,   1.19956E-03,   19.4017E-12
C:/temp/dataset/test2/16_4.odb,Step-1,Increment      1: Step Time =    1.000,"PART-1-1",           243,            0.,          22.5,            0.,NA,NA,"",   54.3209E-03,  -54.2798E-03,   2.11347E-03,   20.9482E-12
C:/temp/dataset/test2/16_4.odb,Step-1,Increment      1: Step Time =    1.000,"PART-1-1",           244,           -3.,       23.4375,            0.,NA,NA,"",   55.1385E-03,  -55.1350E-03,  -627.468E-06,   18.2355E-12
C:/temp/dataset/test2/16_4.odb,Step-1,Increment      1: Step Time =    1.000,"PART-1-1",           245,           -2.,          22.5,            0.,NA,NA,"",   54.2797E-03,  -54.2790E-03,   286.438E-06,   17.9254E-12
C:/temp/dataset/test2/16_4.odb,Step-1,Increment      1: Step Time =    1.000,"PART-1-1",           246,           -5.,       23.4375,            0.,NA,NA,"",   55.1887E-03,  -55.1341E-03,  -2.45450E-03,   27.0032E-12
C:/temp/dataset/test2/16_4.odb,Step-1,Increment      1: Step Time =    1.000,"PART-1-1",           247,           -4.,          22.5,            0.,NA,NA,"",   54.3000E-03,  -54.2781E-03,  -1.54059E-03,   23.9409E-12
C:/temp/dataset/test2/16_4.odb,Step-1,Increment      1: Step Time =    1.000,"PART-1-1",           248,            3.,       21.5625,            0.,NA,NA,"",   53.6447E-03,  -53.4246E-03,   4.85440E-03,   34.1057E-12
C:/temp/dataset/test2/16_4.odb,Step-1,Increment      1: Step Time =    1.000,"PART-1-1",           249,            4.,        20.625,            0.,NA,NA,"",   52.8842E-03,  -52.5686E-03,   5.76831E-03,   42.3962E-12
C:/temp/dataset/test2/16_4.odb,Step-1,Increment      1: Step Time =    1.000,"PART-1-1",           250,            5.,       21.5625,            0.,NA,NA,"",   53.8416E-03,  -53.4255E-03,   6.68143E-03,   46.0840E-12
C:/temp/dataset/test2/16_4.odb,Step-1,Increment      1: Step Time =    1.000,"PART-1-1",           251,            1.,       21.5625,            0.,NA,NA,"",   53.5095E-03,  -53.4238E-03,   3.02737E-03,   25.1573E-12
C:/temp/dataset/test2/16_4.odb,Step-1,Increment      1: Step Time =    1.000,"PART-1-1",           252,            2.,        20.625,            0.,NA,NA,"",   52.7153E-03,  -52.5678E-03,   3.94128E-03,   30.5306E-12
C:/temp/dataset/test2/16_4.odb,Step-1,Increment      1: Step Time =    1.000,"PART-1-1",           253,           -1.,       21.5625,            0.,NA,NA,"",   53.4364E-03,  -53.4230E-03,   1.20034E-03,   19.4041E-12
C:/temp/dataset/test2/16_4.odb,Step-1,Increment      1: Step Time =    1.000,"PART-1-1",           254,            0.,        20.625,            0.,NA,NA,"",   52.6095E-03,  -52.5670E-03,   2.11425E-03,   21.4297E-12
C:/temp/dataset/test2/16_4.odb,Step-1,Increment      1: Step Time =    1.000,"PART-1-1",           255,           -3.,       21.5625,            0.,NA,NA,"",   53.4258E-03,  -53.4221E-03,  -626.685E-06,   21.5252E-12
C:/temp/dataset/test2/16_4.odb,Step-1,Increment      1: Step Time =    1.000,"PART-1-1",           256,           -2.,        20.625,            0.,NA,NA,"",   52.5669E-03,  -52.5661E-03,   287.221E-06,   19.3057E-12
C:/temp/dataset/test2/16_4.odb,Step-1,Increment      1: Step Time =    1.000,"PART-1-1",           257,           -5.,       21.5625,            0.,NA,NA,"",   53.4776E-03,  -53.4213E-03,  -2.45371E-03,   35.1224E-12
C:/temp/dataset/test2/16_4.odb,Step-1,Increment      1: Step Time =    1.000,"PART-1-1",           258,           -4.,        20.625,            0.,NA,NA,"",   52.5878E-03,  -52.5653E-03,  -1.53981E-03,   30.2649E-12
C:/temp/dataset/test2/16_4.odb,Step-1,Increment      1: Step Time =    1.000,"PART-1-1",           259,            3.,       19.6875,            0.,NA,NA,"",   51.9392E-03,  -51.7118E-03,   4.85518E-03,   39.0477E-12
C:/temp/dataset/test2/16_4.odb,Step-1,Increment      1: Step Time =    1.000,"PART-1-1",           260,            4.,         18.75,            0.,NA,NA,"",   51.1820E-03,  -50.8558E-03,   5.76909E-03,   48.1659E-12
C:/temp/dataset/test2/16_4.odb,Step-1,Increment      1: Step Time =    1.000,"PART-1-1",           261,            5.,       19.6875,            0.,NA,NA,"",   52.1426E-03,  -51.7126E-03,   6.68221E-03,   52.4549E-12
C:/temp/dataset/test2/16_4.odb,Step-1,Increment      1: Step Time =    1.000,"PART-1-1",           262,            1.,       19.6875,            0.,NA,NA,"",   51.7995E-03,  -51.7110E-03,   3.02816E-03,   27.1278E-12
C:/temp/dataset/test2/16_4.odb,Step-1,Increment      1: Step Time =    1.000,"PART-1-1",           263,            2.,         18.75,            0.,NA,NA,"",   51.0075E-03,  -50.8550E-03,   3.94206E-03,   34.0757E-12
C:/temp/dataset/test2/16_4.odb,Step-1,Increment      1: Step Time =    1.000,"PART-1-1",           264,           -1.,       19.6875,            0.,NA,NA,"",   51.7241E-03,  -51.7101E-03,   1.20113E-03,   20.0015E-12
C:/temp/dataset/test2/16_4.odb,Step-1,Increment      1: Step Time =    1.000,"PART-1-1",           265,            0.,         18.75,            0.,NA,NA,"",   50.8981E-03,  -50.8541E-03,   2.11503E-03,   22.6525E-12
C:/temp/dataset/test2/16_4.odb,Step-1,Increment      1: Step Time =    1.000,"PART-1-1",           266,           -3.,       19.6875,            0.,NA,NA,"",   51.7131E-03,  -51.7093E-03,  -625.903E-06,   25.1653E-12
C:/temp/dataset/test2/16_4.odb,Step-1,Increment      1: Step Time =    1.000,"PART-1-1",           267,           -2.,         18.75,            0.,NA,NA,"",   50.8541E-03,  -50.8533E-03,   288.003E-06,   21.6123E-12
C:/temp/dataset/test2/16_4.odb,Step-1,Increment      1: Step Time =    1.000,"PART-1-1",           268,           -5.,       19.6875,            0.,NA,NA,"",   51.7666E-03,  -51.7085E-03,  -2.45293E-03,   44.2059E-12
C:/temp/dataset/test2/16_4.odb,Step-1,Increment      1: Step Time =    1.000,"PART-1-1",           269,           -4.,         18.75,            0.,NA,NA,"",   50.8757E-03,  -50.8525E-03,  -1.53903E-03,   37.0057E-12
C:/temp/dataset/test2/16_4.odb,Step-1,Increment      1: Step Time =    1.000,"PART-1-1",           270,            3.,       17.8125,            0.,NA,NA,"",   50.2342E-03,  -49.9990E-03,   4.85597E-03,   45.4218E-12
C:/temp/dataset/test2/16_4.odb,Step-1,Increment      1: Step Time =    1.000,"PART-1-1",           271,            4.,        16.875,            0.,NA,NA,"",   49.4805E-03,  -49.1430E-03,   5.76987E-03,   55.7691E-12
C:/temp/dataset/test2/16_4.odb,Step-1,Increment      1: Step Time =    1.000,"PART-1-1",           272,            5.,       17.8125,            0.,NA,NA,"",   50.4444E-03,  -49.9998E-03,   6.68300E-03,   59.8716E-12
C:/temp/dataset/test2/16_4.odb,Step-1,Increment      1: Step Time =    1.000,"PART-1-1",           273,            1.,       17.8125,            0.,NA,NA,"",   50.0898E-03,  -49.9981E-03,   3.02894E-03,   30.2865E-12
C:/temp/dataset/test2/16_4.odb,Step-1,Increment      1: Step Time =    1.000,"PART-1-1",           274,            2.,        16.875,            0.,NA,NA,"",   49.3000E-03,  -49.1421E-03,   3.94284E-03,   39.0405E-12
C:/temp/dataset/test2/16_4.odb,Step-1,Increment      1: Step Time =    1.000,"PART-1-1",           275,           -1.,       17.8125,            0.,NA,NA,"",   50.0117E-03,  -49.9973E-03,   1.20191E-03,   23.1138E-12
C:/temp/dataset/test2/16_4.odb,Step-1,Increment      1: Step Time =    1.000,"PART-1-1",           276,            0.,        16.875,            0.,NA,NA,"",   49.1868E-03,  -49.1413E-03,   2.11581E-03,   27.1578E-12
C:/temp/dataset/test2/16_4.odb,Step-1,Increment      1: Step Time =    1.000,"PART-1-1",           277,           -3.,       17.8125,            0.,NA,NA,"",   50.0004E-03,  -49.9965E-03,  -625.120E-06,   28.9452E-12
C:/temp/dataset/test2/16_4.odb,Step-1,Increment      1: Step Time =    1.000,"PART-1-1",           278,           -2.,        16.875,            0.,NA,NA,"",   49.1413E-03,  -49.1404E-03,   288.785E-06,   27.4543E-12
C:/temp/dataset/test2/16_4.odb,Step-1,Increment      1: Step Time =    1.000,"PART-1-1",           279,           -5.,       17.8125,            0.,NA,NA,"",   50.0557E-03,  -49.9956E-03,  -2.45215E-03,   52.5744E-12
C:/temp/dataset/test2/16_4.odb,Step-1,Increment      1: Step Time =    1.000,"PART-1-1",           280,           -4.,        16.875,            0.,NA,NA,"",   49.1637E-03,  -49.1396E-03,  -1.53824E-03,   42.8176E-12
C:/temp/dataset/test2/16_4.odb,Step-1,Increment      1: Step Time =    1.000,"PART-1-1",           281,            3.,       15.9375,            0.,NA,NA,"",   48.5298E-03,  -48.2861E-03,   4.85675E-03,   57.2562E-12
C:/temp/dataset/test2/16_4.odb,Step-1,Increment      1: Step Time =    1.000,"PART-1-1",           282,            4.,           15.,            0.,NA,NA,"",   47.7799E-03,  -47.4301E-03,   5.77065E-03,   70.9142E-12
C:/temp/dataset/test2/16_4.odb,Step-1,Increment      1: Step Time =    1.000,"PART-1-1",           283,            5.,       15.9375,            0.,NA,NA,"",   48.7473E-03,  -48.2869E-03,   6.68378E-03,   73.1770E-12
C:/temp/dataset/test2/16_4.odb,Step-1,Increment      1: Step Time =    1.000,"PART-1-1",           284,            1.,       15.9375,            0.,NA,NA,"",   48.3802E-03,  -48.2853E-03,   3.02972E-03,   40.5496E-12
C:/temp/dataset/test2/16_4.odb,Step-1,Increment      1: Step Time =    1.000,"PART-1-1",           285,            2.,           15.,            0.,NA,NA,"",   47.5929E-03,  -47.4293E-03,   3.94363E-03,   52.3802E-12
C:/temp/dataset/test2/16_4.odb,Step-1,Increment      1: Step Time =    1.000,"PART-1-1",           286,           -1.,       15.9375,            0.,NA,NA,"",   48.2994E-03,  -48.2844E-03,   1.20269E-03,   37.7787E-12
C:/temp/dataset/test2/16_4.odb,Step-1,Increment      1: Step Time =    1.000,"PART-1-1",           287,            0.,           15.,            0.,NA,NA,"",   47.4757E-03,  -47.4284E-03,   2.11660E-03,   46.3800E-12
C:/temp/dataset/test2/16_4.odb,Step-1,Increment      1: Step Time =    1.000,"PART-1-1",           288,           -3.,       15.9375,            0.,NA,NA,"",   48.2876E-03,  -48.2836E-03,  -624.338E-06,   36.4517E-12
C:/temp/dataset/test2/16_4.odb,Step-1,Increment      1: Step Time =    1.000,"PART-1-1",           289,           -2.,           15.,            0.,NA,NA,"",   47.4285E-03,  -47.4276E-03,   289.568E-06,   47.0362E-12
C:/temp/dataset/test2/16_4.odb,Step-1,Increment      1: Step Time =    1.000,"PART-1-1",           290,           -5.,       15.9375,            0.,NA,NA,"",   48.3450E-03,  -48.2828E-03,  -2.45137E-03,   55.2293E-12
C:/temp/dataset/test2/16_4.odb,Step-1,Increment      1: Step Time =    1.000,"PART-1-1",           291,           -4.,           15.,            0.,NA,NA,"",   47.4517E-03,  -47.4268E-03,  -1.53746E-03,   45.8942E-12
C:/temp/dataset/test2/16_4.odb,Step-1,Increment      1: Step Time =    1.000,"PART-1-1",           292,            3.,       14.0625,            0.,NA,NA,"",   46.8259E-03,  -46.5733E-03,   4.85753E-03,   88.4275E-12
C:/temp/dataset/test2/16_4.odb,Step-1,Increment      1: Step Time =    1.000,"PART-1-1",           293,            4.,        13.125,            0.,NA,NA,"",   46.0801E-03,  -45.7173E-03,   5.77144E-03,   108.964E-12
C:/temp/dataset/test2/16_4.odb,Step-1,Increment      1: Step Time =    1.000,"PART-1-1",           294,            5.,       14.0625,            0.,NA,NA,"",   47.0514E-03,  -46.5741E-03,   6.68456E-03,   105.691E-12
C:/temp/dataset/test2/16_4.odb,Step-1,Increment      1: Step Time =    1.000,"PART-1-1",           295,            1.,       14.0625,            0.,NA,NA,"",   46.6709E-03,  -46.5724E-03,   3.03050E-03,   77.0469E-12
C:/temp/dataset/test2/16_4.odb,Step-1,Increment      1: Step Time =    1.000,"PART-1-1",           296,            2.,        13.125,            0.,NA,NA,"",   45.8863E-03,  -45.7164E-03,   3.94441E-03,   94.8102E-12
C:/temp/dataset/test2/16_4.odb,Step-1,Increment      1: Step Time =    1.000,"PART-1-1",           297,           -1.,       14.0625,            0.,NA,NA,"",   46.5872E-03,  -46.5716E-03,   1.20347E-03,   81.3498E-12
C:/temp/dataset/test2/16_4.odb,Step-1,Increment      1: Step Time =    1.000,"PART-1-1",           298,            0.,        13.125,            0.,NA,NA,"",   45.7646E-03,  -45.7156E-03,   2.11738E-03,   100.407E-12
C:/temp/dataset/test2/16_4.odb,Step-1,Increment      1: Step Time =    1.000,"PART-1-1",           299,           -3.,       14.0625,            0.,NA,NA,"",   46.5749E-03,  -46.5708E-03,  -623.556E-06,   65.3862E-12
C:/temp/dataset/test2/16_4.odb,Step-1,Increment      1: Step Time =    1.000,"PART-1-1",           300,           -2.,        13.125,            0.,NA,NA,"",   45.7157E-03,  -45.7148E-03,   290.350E-06,   98.5432E-12
C:/temp/dataset/test2/16_4.odb,Step-1,Increment      1: Step Time =    1.000,"PART-1-1",           301,           -5.,       14.0625,            0.,NA,NA,"",   46.6344E-03,  -46.5699E-03,  -2.45058E-03,   39.9018E-12
C:/temp/dataset/test2/16_4.odb,Step-1,Increment      1: Step Time =    1.000,"PART-1-1",           302,           -4.,        13.125,            0.,NA,NA,"",   45.7398E-03,  -45.7139E-03,  -1.53668E-03,   54.9112E-12
C:/temp/dataset/test2/16_4.odb,Step-1,Increment      1: Step Time =    1.000,"PART-1-1",           303,            3.,       12.1875,            0.,NA,NA,"",   45.1227E-03,  -44.8604E-03,   4.85831E-03,   163.710E-12
C:/temp/dataset/test2/16_4.odb,Step-1,Increment      1: Step Time =    1.000,"PART-1-1",           304,            4.,         11.25,            0.,NA,NA,"",   44.3814E-03,  -44.0044E-03,   5.77222E-03,   197.540E-12
C:/temp/dataset/test2/16_4.odb,Step-1,Increment      1: Step Time =    1.000,"PART-1-1",           305,            5.,       12.1875,            0.,NA,NA,"",   45.3567E-03,  -44.8613E-03,   6.68534E-03,   186.921E-12
C:/temp/dataset/test2/16_4.odb,Step-1,Increment      1: Step Time =    1.000,"PART-1-1",           306,            1.,       12.1875,            0.,NA,NA,"",   44.9619E-03,  -44.8596E-03,   3.03129E-03,   162.391E-12
C:/temp/dataset/test2/16_4.odb,Step-1,Increment      1: Step Time =    1.000,"PART-1-1",           307,            2.,         11.25,            0.,NA,NA,"",   44.1801E-03,  -44.0036E-03,   3.94519E-03,   189.046E-12
C:/temp/dataset/test2/16_4.odb,Step-1,Increment      1: Step Time =    1.000,"PART-1-1",           308,           -1.,       12.1875,            0.,NA,NA,"",   44.8749E-03,  -44.8588E-03,   1.20426E-03,   172.696E-12
C:/temp/dataset/test2/16_4.odb,Step-1,Increment      1: Step Time =    1.000,"PART-1-1",           309,            0.,         11.25,            0.,NA,NA,"",   44.0537E-03,  -44.0028E-03,   2.11816E-03,   207.989E-12
C:/temp/dataset/test2/16_4.odb,Step-1,Increment      1: Step Time =    1.000,"PART-1-1",           310,           -3.,       12.1875,            0.,NA,NA,"",   44.8623E-03,  -44.8579E-03,  -622.773E-06,   141.797E-12
C:/temp/dataset/test2/16_4.odb,Step-1,Increment      1: Step Time =    1.000,"PART-1-1",           311,           -2.,         11.25,            0.,NA,NA,"",   44.0029E-03,  -44.0019E-03,   291.133E-06,   200.432E-12
C:/temp/dataset/test2/16_4.odb,Step-1,Increment      1: Step Time =    1.000,"PART-1-1",           312,           -5.,       12.1875,            0.,NA,NA,"",   44.9239E-03,  -44.8571E-03,  -2.44980E-03,   35.7762E-12
C:/temp/dataset/test2/16_4.odb,Step-1,Increment      1: Step Time =    1.000,"PART-1-1",           313,           -4.,         11.25,            0.,NA,NA,"",   44.0279E-03,  -44.0011E-03,  -1.53590E-03,   114.803E-12
C:/temp/dataset/test2/16_4.odb,Step-1,Increment      1: Step Time =    1.000,"PART-1-1",           314,            3.,       10.3125,            0.,NA,NA,"",   43.4203E-03,  -43.1476E-03,   4.85910E-03,   301.013E-12
C:/temp/dataset/test2/16_4.odb,Step-1,Increment      1: Step Time =    1.000,"PART-1-1",           315,            4.,         9.375,            0.,NA,NA,"",   42.6838E-03,  -42.2916E-03,   5.77300E-03,   368.549E-12
C:/temp/dataset/test2/16_4.odb,Step-1,Increment      1: Step Time =    1.000,"PART-1-1",           316,            5.,       10.3125,            0.,NA,NA,"",   43.6634E-03,  -43.1484E-03,   6.68612E-03,   369.292E-12
C:/temp/dataset/test2/16_4.odb,Step-1,Increment      1: Step Time =    1.000,"PART-1-1",           317,            1.,       10.3125,            0.,NA,NA,"",   43.2532E-03,  -43.1468E-03,   3.03207E-03,   305.059E-12
C:/temp/dataset/test2/16_4.odb,Step-1,Increment      1: Step Time =    1.000,"PART-1-1",           318,            2.,         9.375,            0.,NA,NA,"",   42.4744E-03,  -42.2908E-03,   3.94597E-03,   334.816E-12
C:/temp/dataset/test2/16_4.odb,Step-1,Increment      1: Step Time =    1.000,"PART-1-1",           319,           -1.,       10.3125,            0.,NA,NA,"",   43.1628E-03,  -43.1459E-03,   1.20504E-03,   320.866E-12
C:/temp/dataset/test2/16_4.odb,Step-1,Increment      1: Step Time =    1.000,"PART-1-1",           320,            0.,         9.375,            0.,NA,NA,"",   42.3430E-03,  -42.2899E-03,   2.11894E-03,   368.683E-12
C:/temp/dataset/test2/16_4.odb,Step-1,Increment      1: Step Time =    1.000,"PART-1-1",           321,           -3.,       10.3125,            0.,NA,NA,"",   43.1496E-03,  -43.1451E-03,  -621.991E-06,   280.726E-12
C:/temp/dataset/test2/16_4.odb,Step-1,Increment      1: Step Time =    1.000,"PART-1-1",           322,           -2.,         9.375,            0.,NA,NA,"",   42.2901E-03,  -42.2891E-03,   291.915E-06,   353.192E-12
C:/temp/dataset/test2/16_4.odb,Step-1,Increment      1: Step Time =    1.000,"PART-1-1",           323,           -5.,       10.3125,            0.,NA,NA,"",   43.2137E-03,  -43.1443E-03,  -2.44902E-03,   197.445E-12
C:/temp/dataset/test2/16_4.odb,Step-1,Increment      1: Step Time =    1.000,"PART-1-1",           324,           -4.,         9.375,            0.,NA,NA,"",   42.3161E-03,  -42.2883E-03,  -1.53511E-03,   264.019E-12
C:/temp/dataset/test2/16_4.odb,Step-1,Increment      1: Step Time =    1.000,"PART-1-1",           325,            3.,        8.4375,            0.,NA,NA,"",   41.7188E-03,  -41.4348E-03,   4.85988E-03,   469.012E-12
C:/temp/dataset/test2/16_4.odb,Step-1,Increment      1: Step Time =    1.000,"PART-1-1",           326,            4.,           7.5,            0.,NA,NA,"",   40.9875E-03,  -40.5788E-03,   5.77378E-03,   629.123E-12
C:/temp/dataset/test2/16_4.odb,Step-1,Increment      1: Step Time =    1.000,"PART-1-1",           327,            5.,        8.4375,            0.,NA,NA,"",   41.9717E-03,  -41.4356E-03,   6.68691E-03,   720.738E-12
C:/temp/dataset/test2/16_4.odb,Step-1,Increment      1: Step Time =    1.000,"PART-1-1",           328,            1.,        8.4375,            0.,NA,NA,"",   41.5448E-03,  -41.4339E-03,   3.03285E-03,   457.013E-12
C:/temp/dataset/test2/16_4.odb,Step-1,Increment      1: Step Time =    1.000,"PART-1-1",           329,            2.,           7.5,            0.,NA,NA,"",   40.7694E-03,  -40.5779E-03,   3.94676E-03,   451.403E-12
C:/temp/dataset/test2/16_4.odb,Step-1,Increment      1: Step Time =    1.000,"PART-1-1",           330,           -1.,        8.4375,            0.,NA,NA,"",   41.4506E-03,  -41.4331E-03,   1.20582E-03,   479.388E-12
C:/temp/dataset/test2/16_4.odb,Step-1,Increment      1: Step Time =    1.000,"PART-1-1",           331,            0.,           7.5,            0.,NA,NA,"",   40.6324E-03,  -40.5771E-03,   2.11973E-03,   506.965E-12
C:/temp/dataset/test2/16_4.odb,Step-1,Increment      1: Step Time =    1.000,"PART-1-1",           332,           -3.,        8.4375,            0.,NA,NA,"",   41.4369E-03,  -41.4323E-03,  -621.208E-06,   450.553E-12
C:/temp/dataset/test2/16_4.odb,Step-1,Increment      1: Step Time =    1.000,"PART-1-1",           333,           -2.,           7.5,            0.,NA,NA,"",   40.5773E-03,  -40.5762E-03,   292.698E-06,   478.808E-12
C:/temp/dataset/test2/16_4.odb,Step-1,Increment      1: Step Time =    1.000,"PART-1-1",           334,           -5.,        8.4375,            0.,NA,NA,"",   41.5037E-03,  -41.4314E-03,  -2.44824E-03,   531.784E-12
C:/temp/dataset/test2/16_4.odb,Step-1,Increment      1: Step Time =    1.000,"PART-1-1",           335,           -4.,           7.5,            0.,NA,NA,"",   40.6044E-03,  -40.5754E-03,  -1.53433E-03,   501.568E-12
C:/temp/dataset/test2/16_4.odb,Step-1,Increment      1: Step Time =    1.000,"PART-1-1",           336,            3.,        6.5625,            0.,NA,NA,"",   40.0182E-03,  -39.7219E-03,   4.86066E-03,   473.940E-12
C:/temp/dataset/test2/16_4.odb,Step-1,Increment      1: Step Time =    1.000,"PART-1-1",           337,            4.,         5.625,            0.,NA,NA,"",   39.2926E-03,  -38.8659E-03,   5.77456E-03,   879.649E-12
C:/temp/dataset/test2/16_4.odb,Step-1,Increment      1: Step Time =    1.000,"PART-1-1",           338,            5.,        6.5625,            0.,NA,NA,"",   40.2818E-03,  -39.7228E-03,   6.68769E-03,   1.26155E-09
C:/temp/dataset/test2/16_4.odb,Step-1,Increment      1: Step Time =    1.000,"PART-1-1",           339,            1.,        6.5625,            0.,NA,NA,"",   39.8368E-03,  -39.7211E-03,   3.03363E-03,   471.515E-12
C:/temp/dataset/test2/16_4.odb,Step-1,Increment      1: Step Time =    1.000,"PART-1-1",           340,            2.,         5.625,            0.,NA,NA,"",   39.0650E-03,  -38.8651E-03,   3.94754E-03,   367.246E-12
C:/temp/dataset/test2/16_4.odb,Step-1,Increment      1: Step Time =    1.000,"PART-1-1",           341,           -1.,        6.5625,            0.,NA,NA,"",   39.7386E-03,  -39.7202E-03,   1.20660E-03,   502.372E-12
C:/temp/dataset/test2/16_4.odb,Step-1,Increment      1: Step Time =    1.000,"PART-1-1",           342,            0.,         5.625,            0.,NA,NA,"",   38.9220E-03,  -38.8642E-03,   2.12051E-03,   574.905E-12
C:/temp/dataset/test2/16_4.odb,Step-1,Increment      1: Step Time =    1.000,"PART-1-1",           343,           -3.,        6.5625,            0.,NA,NA,"",   39.7243E-03,  -39.7194E-03,  -620.426E-06,   460.592E-12
C:/temp/dataset/test2/16_4.odb,Step-1,Increment      1: Step Time =    1.000,"PART-1-1",           344,           -2.,         5.625,            0.,NA,NA,"",   38.8645E-03,  -38.8634E-03,   293.481E-06,   407.539E-12
C:/temp/dataset/test2/16_4.odb,Step-1,Increment      1: Step Time =    1.000,"PART-1-1",           345,           -5.,        6.5625,            0.,NA,NA,"",   39.7939E-03,  -39.7186E-03,  -2.44746E-03,   1.05561E-09
C:/temp/dataset/test2/16_4.odb,Step-1,Increment      1: Step Time =    1.000,"PART-1-1",           346,           -4.,         5.625,            0.,NA,NA,"",   38.8928E-03,  -38.8626E-03,  -1.53355E-03,   721.030E-12
C:/temp/dataset/test2/16_4.odb,Step-1,Increment      1: Step Time =    1.000,"PART-1-1",           347,            3.,        4.6875,            0.,NA,NA,"",   38.3187E-03,  -38.0091E-03,   4.86144E-03,   505.509E-12
C:/temp/dataset/test2/16_4.odb,Step-1,Increment      1: Step Time =    1.000,"PART-1-1",           348,            4.,          3.75,            0.,NA,NA,"",   37.5993E-03,  -37.1531E-03,   5.77535E-03,   964.335E-12
C:/temp/dataset/test2/16_4.odb,Step-1,Increment      1: Step Time =    1.000,"PART-1-1",           349,            5.,        4.6875,            0.,NA,NA,"",   38.5939E-03,  -38.0099E-03,   6.68847E-03,   1.74438E-09
C:/temp/dataset/test2/16_4.odb,Step-1,Increment      1: Step Time =    1.000,"PART-1-1",           350,            1.,        4.6875,            0.,NA,NA,"",   38.1292E-03,  -38.0082E-03,   3.03442E-03,   1.33886E-09
C:/temp/dataset/test2/16_4.odb,Step-1,Increment      1: Step Time =    1.000,"PART-1-1",           351,            2.,          3.75,            0.,NA,NA,"",   37.3615E-03,  -37.1522E-03,   3.94832E-03,   1.78053E-09
C:/temp/dataset/test2/16_4.odb,Step-1,Increment      1: Step Time =    1.000,"PART-1-1",           352,           -1.,        4.6875,            0.,NA,NA,"",   38.0266E-03,  -38.0074E-03,   1.20739E-03,   1.34019E-09
C:/temp/dataset/test2/16_4.odb,Step-1,Increment      1: Step Time =    1.000,"PART-1-1",           353,            0.,          3.75,            0.,NA,NA,"",   37.2119E-03,  -37.1514E-03,   2.12129E-03,   2.26371E-09
C:/temp/dataset/test2/16_4.odb,Step-1,Increment      1: Step Time =    1.000,"PART-1-1",           354,           -3.,        4.6875,            0.,NA,NA,"",   38.0116E-03,  -38.0066E-03,  -619.644E-06,   540.735E-12
C:/temp/dataset/test2/16_4.odb,Step-1,Increment      1: Step Time =    1.000,"PART-1-1",           355,           -2.,          3.75,            0.,NA,NA,"",   37.1517E-03,  -37.1506E-03,   294.263E-06,   1.77477E-09
C:/temp/dataset/test2/16_4.odb,Step-1,Increment      1: Step Time =    1.000,"PART-1-1",           356,           -5.,        4.6875,            0.,NA,NA,"",   38.0844E-03,  -38.0057E-03,  -2.44668E-03,   1.52128E-09
C:/temp/dataset/test2/16_4.odb,Step-1,Increment      1: Step Time =    1.000,"PART-1-1",           357,           -4.,          3.75,            0.,NA,NA,"",   37.1813E-03,  -37.1497E-03,  -1.53277E-03,   802.072E-12
C:/temp/dataset/test2/16_4.odb,Step-1,Increment      1: Step Time =    1.000,"PART-1-1",           358,            3.,        2.8125,            0.,NA,NA,"",   36.6205E-03,  -36.2962E-03,   4.86222E-03,   3.84926E-09
C:/temp/dataset/test2/16_4.odb,Step-1,Increment      1: Step Time =    1.000,"PART-1-1",           359,            4.,         1.875,            0.,NA,NA,"",   35.9079E-03,  -35.4403E-03,   5.77613E-03,   3.08549E-09
C:/temp/dataset/test2/16_4.odb,Step-1,Increment      1: Step Time =    1.000,"PART-1-1",           360,            5.,        2.8125,            0.,NA,NA,"",   36.9083E-03,  -36.2971E-03,   6.68925E-03,   1.09706E-09
C:/temp/dataset/test2/16_4.odb,Step-1,Increment      1: Step Time =    1.000,"PART-1-1",           361,            1.,        2.8125,            0.,NA,NA,"",   36.4221E-03,  -36.2954E-03,   3.03520E-03,   5.70032E-09
C:/temp/dataset/test2/16_4.odb,Step-1,Increment      1: Step Time =    1.000,"PART-1-1",           362,            2.,         1.875,            0.,NA,NA,"",   35.6588E-03,  -35.4394E-03,   3.94910E-03,   7.24535E-09
C:/temp/dataset/test2/16_4.odb,Step-1,Increment      1: Step Time =    1.000,"PART-1-1",           363,           -1.,        2.8125,            0.,NA,NA,"",   36.3147E-03,  -36.2946E-03,   1.20817E-03,   5.68568E-09
C:/temp/dataset/test2/16_4.odb,Step-1,Increment      1: Step Time =    1.000,"PART-1-1",           364,            0.,         1.875,            0.,NA,NA,"",   35.5020E-03,  -35.4386E-03,   2.12207E-03,   8.33988E-09
C:/temp/dataset/test2/16_4.odb,Step-1,Increment      1: Step Time =    1.000,"PART-1-1",           365,           -3.,        2.8125,            0.,NA,NA,"",   36.2990E-03,  -36.2937E-03,  -618.861E-06,   3.87600E-09
C:/temp/dataset/test2/16_4.odb,Step-1,Increment      1: Step Time =    1.000,"PART-1-1",           366,           -2.,         1.875,            0.,NA,NA,"",   35.4389E-03,  -35.4377E-03,   295.043E-06,   7.22625E-09
C:/temp/dataset/test2/16_4.odb,Step-1,Increment      1: Step Time =    1.000,"PART-1-1",           367,           -5.,        2.8125,            0.,NA,NA,"",   36.3752E-03,  -36.2929E-03,  -2.44590E-03,   860.552E-12
C:/temp/dataset/test2/16_4.odb,Step-1,Increment      1: Step Time =    1.000,"PART-1-1",           368,           -4.,         1.875,            0.,NA,NA,"",   35.4700E-03,  -35.4369E-03,  -1.53199E-03,   3.11497E-09
C:/temp/dataset/test2/16_4.odb,Step-1,Increment      1: Step Time =    1.000,"PART-1-1",           369,            3.,     937.5E-03,            0.,NA,NA,"",   34.9237E-03,  -34.5834E-03,   4.86301E-03,   13.3487E-09
C:/temp/dataset/test2/16_4.odb,Step-1,Increment      1: Step Time =    1.000,"PART-1-1",           370,            4.,            0.,            0.,NA,NA,"",   34.2186E-03,  -33.7274E-03,   5.77692E-03,   11.7267E-09
C:/temp/dataset/test2/16_4.odb,Step-1,Increment      1: Step Time =    1.000,"PART-1-1",           371,            5.,     937.5E-03,            0.,NA,NA,"",   35.2254E-03,  -34.5843E-03,   6.69003E-03,   4.04321E-09
C:/temp/dataset/test2/16_4.odb,Step-1,Increment      1: Step Time =    1.000,"PART-1-1",           372,            1.,     937.5E-03,            0.,NA,NA,"",   34.7156E-03,  -34.5826E-03,   3.03597E-03,   17.1992E-09
C:/temp/dataset/test2/16_4.odb,Step-1,Increment      1: Step Time =    1.000,"PART-1-1",           373,            2.,            0.,            0.,NA,NA,"",   33.9571E-03,  -33.7266E-03,   3.94987E-03,   20.8778E-09
C:/temp/dataset/test2/16_4.odb,Step-1,Increment      1: Step Time =    1.000,"PART-1-1",           374,           -1.,     937.5E-03,            0.,NA,NA,"",   34.6028E-03,  -34.5817E-03,   1.20894E-03,   17.1775E-09
C:/temp/dataset/test2/16_4.odb,Step-1,Increment      1: Step Time =    1.000,"PART-1-1",           375,            0.,            0.,            0.,NA,NA,"",   33.7925E-03,  -33.7257E-03,   2.12283E-03,   23.3025E-09
C:/temp/dataset/test2/16_4.odb,Step-1,Increment      1: Step Time =    1.000,"PART-1-1",           376,           -3.,     937.5E-03,            0.,NA,NA,"",   34.5864E-03,  -34.5809E-03,  -618.079E-06,   13.3748E-09
C:/temp/dataset/test2/16_4.odb,Step-1,Increment      1: Step Time =    1.000,"PART-1-1",           377,           -2.,            0.,            0.,NA,NA,"",   33.7262E-03,  -33.7249E-03,   295.817E-06,   20.8514E-09
C:/temp/dataset/test2/16_4.odb,Step-1,Increment      1: Step Time =    1.000,"PART-1-1",           378,           -5.,     937.5E-03,            0.,NA,NA,"",   34.6664E-03,  -34.5800E-03,  -2.44512E-03,   4.29398E-09
C:/temp/dataset/test2/16_4.odb,Step-1,Increment      1: Step Time =    1.000,"PART-1-1",           379,           -4.,            0.,            0.,NA,NA,"",   33.7588E-03,  -33.7240E-03,  -1.53120E-03,   11.8295E-09
C:/temp/dataset/test2/16_4.odb,Step-1,Increment      1: Step Time =    1.000,"PART-1-1",           380,            3.,    -937.5E-03,            0.,NA,NA,"",   33.2285E-03,  -32.8706E-03,   4.86379E-03,   35.0545E-09
C:/temp/dataset/test2/16_4.odb,Step-1,Increment      1: Step Time =    1.000,"PART-1-1",           381,            4.,        -1.875,            0.,NA,NA,"",   32.5318E-03,  -32.0147E-03,   5.77772E-03,   33.5243E-09
C:/temp/dataset/test2/16_4.odb,Step-1,Increment      1: Step Time =    1.000,"PART-1-1",           382,            5.,    -937.5E-03,            0.,NA,NA,"",   33.5455E-03,  -32.8715E-03,   6.69082E-03,   21.0269E-09
C:/temp/dataset/test2/16_4.odb,Step-1,Increment      1: Step Time =    1.000,"PART-1-1",           383,            1.,    -937.5E-03,            0.,NA,NA,"",   33.0097E-03,  -32.8698E-03,   3.03672E-03,   42.0505E-09
C:/temp/dataset/test2/16_4.odb,Step-1,Increment      1: Step Time =    1.000,"PART-1-1",           384,            2.,        -1.875,            0.,NA,NA,"",   32.2566E-03,  -32.0138E-03,   3.95063E-03,   49.1012E-09
C:/temp/dataset/test2/16_4.odb,Step-1,Increment      1: Step Time =    1.000,"PART-1-1",           385,           -1.,    -937.5E-03,            0.,NA,NA,"",   32.8911E-03,  -32.8689E-03,   1.20969E-03,   42.0199E-09
C:/temp/dataset/test2/16_4.odb,Step-1,Increment      1: Step Time =    1.000,"PART-1-1",           386,            0.,        -1.875,            0.,NA,NA,"",   32.0832E-03,  -32.0129E-03,   2.12356E-03,   53.9271E-09
C:/temp/dataset/test2/16_4.odb,Step-1,Increment      1: Step Time =    1.000,"PART-1-1",           387,           -3.,    -937.5E-03,            0.,NA,NA,"",   32.8738E-03,  -32.8680E-03,  -617.295E-06,   35.0750E-09
C:/temp/dataset/test2/16_4.odb,Step-1,Increment      1: Step Time =    1.000,"PART-1-1",           388,           -2.,        -1.875,            0.,NA,NA,"",   32.0133E-03,  -32.0120E-03,   296.574E-06,   49.0661E-09
C:/temp/dataset/test2/16_4.odb,Step-1,Increment      1: Step Time =    1.000,"PART-1-1",           389,           -5.,    -937.5E-03,            0.,NA,NA,"",   32.9579E-03,  -32.8672E-03,  -2.44432E-03,   21.3055E-09
C:/temp/dataset/test2/16_4.odb,Step-1,Increment      1: Step Time =    1.000,"PART-1-1",           390,           -4.,        -1.875,            0.,NA,NA,"",   32.0477E-03,  -32.0111E-03,  -1.53039E-03,   33.6617E-09
C:/temp/dataset/test2/16_4.odb,Step-1,Increment      1: Step Time =    1.000,"PART-1-1",           391,            3.,       -2.8125,            0.,NA,NA,"",   31.5353E-03,  -31.1579E-03,   4.86458E-03,   76.2100E-09
C:/temp/dataset/test2/16_4.odb,Step-1,Increment      1: Step Time =    1.000,"PART-1-1",           392,            4.,         -3.75,            0.,NA,NA,"",   30.8479E-03,  -30.3019E-03,   5.77857E-03,   78.9344E-09
C:/temp/dataset/test2/16_4.odb,Step-1,Increment      1: Step Time =    1.000,"PART-1-1",           393,            5.,       -2.8125,            0.,NA,NA,"",   31.8691E-03,  -31.1587E-03,   6.69166E-03,   64.8045E-09
C:/temp/dataset/test2/16_4.odb,Step-1,Increment      1: Step Time =    1.000,"PART-1-1",           394,            1.,       -2.8125,            0.,NA,NA,"",   31.3047E-03,  -31.1569E-03,   3.03743E-03,   86.4487E-09
C:/temp/dataset/test2/16_4.odb,Step-1,Increment      1: Step Time =    1.000,"PART-1-1",           395,            2.,         -3.75,            0.,NA,NA,"",   30.5576E-03,  -30.3010E-03,   3.95135E-03,   96.6434E-09
C:/temp/dataset/test2/16_4.odb,Step-1,Increment      1: Step Time =    1.000,"PART-1-1",           396,           -1.,       -2.8125,            0.,NA,NA,"",   31.1795E-03,  -31.1560E-03,   1.21040E-03,   86.3969E-09
C:/temp/dataset/test2/16_4.odb,Step-1,Increment      1: Step Time =    1.000,"PART-1-1",           397,            0.,         -3.75,            0.,NA,NA,"",   30.3744E-03,  -30.3000E-03,   2.12422E-03,   105.037E-09
C:/temp/dataset/test2/16_4.odb,Step-1,Increment      1: Step Time =    1.000,"PART-1-1",           398,           -3.,       -2.8125,            0.,NA,NA,"",   31.1612E-03,  -31.1551E-03,  -616.509E-06,   76.2052E-09
C:/temp/dataset/test2/16_4.odb,Step-1,Increment      1: Step Time =    1.000,"PART-1-1",           399,           -2.,         -3.75,            0.,NA,NA,"",   30.3005E-03,  -30.2991E-03,   297.298E-06,   96.5631E-09
C:/temp/dataset/test2/16_4.odb,Step-1,Increment      1: Step Time =    1.000,"PART-1-1",           400,           -5.,       -2.8125,            0.,NA,NA,"",   31.2499E-03,  -31.1543E-03,  -2.44348E-03,   65.0872E-09
C:/temp/dataset/test2/16_4.odb,Step-1,Increment      1: Step Time =    1.000,"PART-1-1",           401,           -4.,         -3.75,            0.,NA,NA,"",   30.3368E-03,  -30.2982E-03,  -1.52954E-03,   79.0770E-09
C:/temp/dataset/test2/16_4.odb,Step-1,Increment      1: Step Time =    1.000,"PART-1-1",           402,            3.,       -4.6875,            0.,NA,NA,"",   29.8443E-03,  -29.4451E-03,   4.86537E-03,   136.443E-09
C:/temp/dataset/test2/16_4.odb,Step-1,Increment      1: Step Time =    1.000,"PART-1-1",           403,            4.,        -5.625,            0.,NA,NA,"",   29.1674E-03,  -28.5891E-03,   5.77950E-03,   156.440E-09
C:/temp/dataset/test2/16_4.odb,Step-1,Increment      1: Step Time =    1.000,"PART-1-1",           404,            5.,       -4.6875,            0.,NA,NA,"",   30.1968E-03,  -29.4459E-03,   6.69260E-03,   158.253E-09
C:/temp/dataset/test2/16_4.odb,Step-1,Increment      1: Step Time =    1.000,"PART-1-1",           405,            1.,       -4.6875,            0.,NA,NA,"",   29.6005E-03,  -29.4441E-03,   3.03807E-03,   145.917E-09
C:/temp/dataset/test2/16_4.odb,Step-1,Increment      1: Step Time =    1.000,"PART-1-1",           406,            2.,        -5.625,            0.,NA,NA,"",   28.8601E-03,  -28.5882E-03,   3.95203E-03,   152.148E-09
C:/temp/dataset/test2/16_4.odb,Step-1,Increment      1: Step Time =    1.000,"PART-1-1",           407,           -1.,       -4.6875,            0.,NA,NA,"",   29.4680E-03,  -29.4431E-03,   1.21104E-03,   145.758E-09
C:/temp/dataset/test2/16_4.odb,Step-1,Increment      1: Step Time =    1.000,"PART-1-1",           408,            0.,        -5.625,            0.,NA,NA,"",   28.6661E-03,  -28.5872E-03,   2.12478E-03,   165.162E-09
C:/temp/dataset/test2/16_4.odb,Step-1,Increment      1: Step Time =    1.000,"PART-1-1",           409,           -3.,       -4.6875,            0.,NA,NA,"",   29.4486E-03,  -29.4422E-03,  -615.719E-06,   136.245E-09
C:/temp/dataset/test2/16_4.odb,Step-1,Increment      1: Step Time =    1.000,"PART-1-1",           410,           -2.,        -5.625,            0.,NA,NA,"",   28.5878E-03,  -28.5862E-03,   297.971E-06,   151.886E-09
C:/temp/dataset/test2/16_4.odb,Step-1,Increment      1: Step Time =    1.000,"PART-1-1",           411,           -5.,       -4.6875,            0.,NA,NA,"",   29.5425E-03,  -29.4414E-03,  -2.44254E-03,   158.481E-09
C:/temp/dataset/test2/16_4.odb,Step-1,Increment      1: Step Time =    1.000,"PART-1-1",           412,           -4.,        -5.625,            0.,NA,NA,"",   28.6262E-03,  -28.5853E-03,  -1.52861E-03,   156.477E-09
C:/temp/dataset/test2/16_4.odb,Step-1,Increment      1: Step Time =    1.000,"PART-1-1",           413,            3.,       -6.5625,            0.,NA,NA,"",   28.1559E-03,  -27.7322E-03,   4.86616E-03,   180.002E-09
C:/temp/dataset/test2/16_4.odb,Step-1,Increment      1: Step Time =    1.000,"PART-1-1",           414,            4.,          -7.5,            0.,NA,NA,"",   27.4906E-03,  -26.8760E-03,   5.78057E-03,   252.087E-09
C:/temp/dataset/test2/16_4.odb,Step-1,Increment      1: Step Time =    1.000,"PART-1-1",           415,            5.,       -6.5625,            0.,NA,NA,"",   28.5293E-03,  -27.7329E-03,   6.69377E-03,   321.448E-09
C:/temp/dataset/test2/16_4.odb,Step-1,Increment      1: Step Time =    1.000,"PART-1-1",           416,            1.,       -6.5625,            0.,NA,NA,"",   27.8973E-03,  -27.7313E-03,   3.03862E-03,   181.490E-09
C:/temp/dataset/test2/16_4.odb,Step-1,Increment      1: Step Time =    1.000,"PART-1-1",           417,            2.,          -7.5,            0.,NA,NA,"",   27.1643E-03,  -26.8752E-03,   3.95265E-03,   158.560E-09
C:/temp/dataset/test2/16_4.odb,Step-1,Increment      1: Step Time =    1.000,"PART-1-1",           418,           -1.,       -6.5625,            0.,NA,NA,"",   27.7567E-03,  -27.7303E-03,   1.21159E-03,   180.985E-09
C:/temp/dataset/test2/16_4.odb,Step-1,Increment      1: Step Time =    1.000,"PART-1-1",           419,            0.,          -7.5,            0.,NA,NA,"",   26.9583E-03,  -26.8744E-03,   2.12527E-03,   189.757E-09
C:/temp/dataset/test2/16_4.odb,Step-1,Increment      1: Step Time =    1.000,"PART-1-1",           420,           -3.,       -6.5625,            0.,NA,NA,"",   27.7362E-03,  -27.7294E-03,  -614.920E-06,   179.126E-09
C:/temp/dataset/test2/16_4.odb,Step-1,Increment      1: Step Time =    1.000,"PART-1-1",           421,           -2.,          -7.5,            0.,NA,NA,"",   26.8752E-03,  -26.8735E-03,   298.596E-06,   157.734E-09
C:/temp/dataset/test2/16_4.odb,Step-1,Increment      1: Step Time =    1.000,"PART-1-1",           422,           -5.,       -6.5625,            0.,NA,NA,"",   27.8359E-03,  -27.7287E-03,  -2.44137E-03,   321.007E-09
C:/temp/dataset/test2/16_4.odb,Step-1,Increment      1: Step Time =    1.000,"PART-1-1",           423,           -4.,          -7.5,            0.,NA,NA,"",   26.9161E-03,  -26.8727E-03,  -1.52755E-03,   251.512E-09
C:/temp/dataset/test2/16_4.odb,Step-1,Increment      1: Step Time =    1.000,"PART-1-1",           424,            3.,       -8.4375,            0.,NA,NA,"",   26.4702E-03,  -26.0189E-03,   4.86697E-03,   100.343E-09
C:/temp/dataset/test2/16_4.odb,Step-1,Increment      1: Step Time =    1.000,"PART-1-1",           425,            4.,        -9.375,            0.,NA,NA,"",   25.8179E-03,  -25.1622E-03,   5.78174E-03,   297.270E-09
C:/temp/dataset/test2/16_4.odb,Step-1,Increment      1: Step Time =    1.000,"PART-1-1",           426,            5.,       -8.4375,            0.,NA,NA,"",   26.8671E-03,  -26.0195E-03,   6.69530E-03,   524.081E-09
C:/temp/dataset/test2/16_4.odb,Step-1,Increment      1: Step Time =    1.000,"PART-1-1",           427,            1.,       -8.4375,            0.,NA,NA,"",   26.1951E-03,  -26.0182E-03,   3.03916E-03,   244.451E-09
C:/temp/dataset/test2/16_4.odb,Step-1,Increment      1: Step Time =    1.000,"PART-1-1",           428,            2.,        -9.375,            0.,NA,NA,"",   25.4703E-03,  -25.1616E-03,   3.95332E-03,   287.361E-09
C:/temp/dataset/test2/16_4.odb,Step-1,Increment      1: Step Time =    1.000,"PART-1-1",           429,           -1.,       -8.4375,            0.,NA,NA,"",   26.0459E-03,  -26.0177E-03,   1.21213E-03,   244.149E-09
C:/temp/dataset/test2/16_4.odb,Step-1,Increment      1: Step Time =    1.000,"PART-1-1",           430,            0.,        -9.375,            0.,NA,NA,"",   25.2512E-03,  -25.1615E-03,   2.12594E-03,   415.471E-09
C:/temp/dataset/test2/16_4.odb,Step-1,Increment      1: Step Time =    1.000,"PART-1-1",           431,           -3.,       -8.4375,            0.,NA,NA,"",   26.0242E-03,  -26.0170E-03,  -614.108E-06,   99.2163E-09
C:/temp/dataset/test2/16_4.odb,Step-1,Increment      1: Step Time =    1.000,"PART-1-1",           432,           -2.,        -9.375,            0.,NA,NA,"",   25.1632E-03,  -25.1614E-03,   299.275E-06,   289.555E-09
C:/temp/dataset/test2/16_4.odb,Step-1,Increment      1: Step Time =    1.000,"PART-1-1",           433,           -5.,       -8.4375,            0.,NA,NA,"",   26.1306E-03,  -26.0164E-03,  -2.43985E-03,   521.118E-09
C:/temp/dataset/test2/16_4.odb,Step-1,Increment      1: Step Time =    1.000,"PART-1-1",           434,           -4.,        -9.375,            0.,NA,NA,"",   25.2071E-03,  -25.1609E-03,  -1.52638E-03,   296.071E-09
C:/temp/dataset/test2/16_4.odb,Step-1,Increment      1: Step Time =    1.000,"PART-1-1",           435,            3.,      -10.3125,            0.,NA,NA,"",   24.7870E-03,  -24.3044E-03,   4.86778E-03,   678.265E-09
C:/temp/dataset/test2/16_4.odb,Step-1,Increment      1: Step Time =    1.000,"PART-1-1",           436,            4.,        -11.25,            0.,NA,NA,"",   24.1489E-03,  -23.4463E-03,   5.78275E-03,   556.627E-09
C:/temp/dataset/test2/16_4.odb,Step-1,Increment      1: Step Time =    1.000,"PART-1-1",           437,            5.,      -10.3125,            0.,NA,NA,"",   25.2107E-03,  -24.3048E-03,   6.69722E-03,   547.921E-09
C:/temp/dataset/test2/16_4.odb,Step-1,Increment      1: Step Time =    1.000,"PART-1-1",           438,            1.,      -10.3125,            0.,NA,NA,"",   24.4940E-03,  -24.3046E-03,   3.04011E-03,   1.14419E-06
C:/temp/dataset/test2/16_4.odb,Step-1,Increment      1: Step Time =    1.000,"PART-1-1",           439,            2.,        -11.25,            0.,NA,NA,"",   23.7776E-03,  -23.4465E-03,   3.95445E-03,   1.48624E-06
C:/temp/dataset/test2/16_4.odb,Step-1,Increment      1: Step Time =    1.000,"PART-1-1",           440,           -1.,      -10.3125,            0.,NA,NA,"",   24.3359E-03,  -24.3056E-03,   1.21310E-03,   1.14456E-06
C:/temp/dataset/test2/16_4.odb,Step-1,Increment      1: Step Time =    1.000,"PART-1-1",           441,            0.,        -11.25,            0.,NA,NA,"",   23.5450E-03,  -23.4487E-03,   2.12769E-03,   1.76365E-06
C:/temp/dataset/test2/16_4.odb,Step-1,Increment      1: Step Time =    1.000,"PART-1-1",           442,           -3.,      -10.3125,            0.,NA,NA,"",   24.3136E-03,  -24.3059E-03,  -613.293E-06,   685.226E-09
C:/temp/dataset/test2/16_4.odb,Step-1,Increment      1: Step Time =    1.000,"PART-1-1",           443,           -2.,        -11.25,            0.,NA,NA,"",   23.4528E-03,  -23.4509E-03,   300.414E-06,   1.49244E-06
C:/temp/dataset/test2/16_4.odb,Step-1,Increment      1: Step Time =    1.000,"PART-1-1",           444,           -5.,      -10.3125,            0.,NA,NA,"",   24.4274E-03,  -24.3054E-03,  -2.43794E-03,   535.887E-09
C:/temp/dataset/test2/16_4.odb,Step-1,Increment      1: Step Time =    1.000,"PART-1-1",           445,           -4.,        -11.25,            0.,NA,NA,"",   23.5006E-03,  -23.4510E-03,  -1.52538E-03,   567.555E-09
C:/temp/dataset/test2/16_4.odb,Step-1,Increment      1: Step Time =    1.000,"PART-1-1",           446,            3.,      -12.1875,            0.,NA,NA,"",   23.1056E-03,  -22.5869E-03,   4.86856E-03,   2.91190E-06
C:/temp/dataset/test2/16_4.odb,Step-1,Increment      1: Step Time =    1.000,"PART-1-1",           447,            4.,       -13.125,            0.,NA,NA,"",   22.4826E-03,  -21.7263E-03,   5.78251E-03,   2.45857E-06
C:/temp/dataset/test2/16_4.odb,Step-1,Increment      1: Step Time =    1.000,"PART-1-1",           448,            5.,      -12.1875,            0.,NA,NA,"",   23.5599E-03,  -22.5875E-03,   6.69899E-03,   384.197E-09
C:/temp/dataset/test2/16_4.odb,Step-1,Increment      1: Step Time =    1.000,"PART-1-1",           449,            1.,      -12.1875,            0.,NA,NA,"",   22.7937E-03,  -22.5897E-03,   3.04278E-03,   3.91719E-06
C:/temp/dataset/test2/16_4.odb,Step-1,Increment      1: Step Time =    1.000,"PART-1-1",           450,            2.,       -13.125,            0.,NA,NA,"",   22.0853E-03,  -21.7279E-03,   3.95713E-03,   4.83861E-06
C:/temp/dataset/test2/16_4.odb,Step-1,Increment      1: Step Time =    1.000,"PART-1-1",           451,           -1.,      -12.1875,            0.,NA,NA,"",   22.6276E-03,  -22.5949E-03,   1.21577E-03,   3.90910E-06
C:/temp/dataset/test2/16_4.odb,Step-1,Increment      1: Step Time =    1.000,"PART-1-1",           452,            0.,       -13.125,            0.,NA,NA,"",   21.8403E-03,  -21.7359E-03,   2.13289E-03,   5.46028E-06
C:/temp/dataset/test2/16_4.odb,Step-1,Increment      1: Step Time =    1.000,"PART-1-1",           453,           -3.,      -12.1875,            0.,NA,NA,"",   22.6060E-03,  -22.5977E-03,  -612.511E-06,   2.90765E-06
C:/temp/dataset/test2/16_4.odb,Step-1,Increment      1: Step Time =    1.000,"PART-1-1",           454,           -2.,       -13.125,            0.,NA,NA,"",   21.7459E-03,  -21.7438E-03,   303.104E-06,   4.83280E-06
C:/temp/dataset/test2/16_4.odb,Step-1,Increment      1: Step Time =    1.000,"PART-1-1",           455,           -5.,      -12.1875,            0.,NA,NA,"",   22.7280E-03,  -22.5971E-03,  -2.43622E-03,   413.448E-09
C:/temp/dataset/test2/16_4.odb,Step-1,Increment      1: Step Time =    1.000,"PART-1-1",           456,           -4.,       -13.125,            0.,NA,NA,"",   21.7988E-03,  -21.7454E-03,  -1.52563E-03,   2.46582E-06
C:/temp/dataset/test2/16_4.odb,Step-1,Increment      1: Step Time =    1.000,"PART-1-1",           457,            3.,      -14.0625,            0.,NA,NA,"",   21.4243E-03,  -20.8636E-03,   4.86913E-03,   8.49023E-06
C:/temp/dataset/test2/16_4.odb,Step-1,Increment      1: Step Time =    1.000,"PART-1-1",           458,            4.,          -15.,            0.,NA,NA,"",   20.8170E-03,  -19.9990E-03,   5.77820E-03,   7.82908E-06
C:/temp/dataset/test2/16_4.odb,Step-1,Increment      1: Step Time =    1.000,"PART-1-1",           459,            5.,      -14.0625,            0.,NA,NA,"",   21.9140E-03,  -20.8653E-03,   6.69813E-03,   4.12369E-06
C:/temp/dataset/test2/16_4.odb,Step-1,Increment      1: Step Time =    1.000,"PART-1-1",           460,            1.,      -14.0625,            0.,NA,NA,"",   21.0938E-03,  -20.8721E-03,   3.05026E-03,   10.4329E-06
C:/temp/dataset/test2/16_4.odb,Step-1,Increment      1: Step Time =    1.000,"PART-1-1",           461,            2.,          -15.,            0.,NA,NA,"",   20.3923E-03,  -20.0033E-03,   3.96401E-03,   12.4288E-06
C:/temp/dataset/test2/16_4.odb,Step-1,Increment      1: Step Time =    1.000,"PART-1-1",           462,           -1.,      -14.0625,            0.,NA,NA,"",   20.9226E-03,  -20.8868E-03,   1.22321E-03,   10.3414E-06
C:/temp/dataset/test2/16_4.odb,Step-1,Increment      1: Step Time =    1.000,"PART-1-1",           463,            0.,          -15.,            0.,NA,NA,"",   20.1380E-03,  -20.0233E-03,   2.14681E-03,   13.6440E-06
C:/temp/dataset/test2/16_4.odb,Step-1,Increment      1: Step Time =    1.000,"PART-1-1",           464,           -3.,      -14.0625,            0.,NA,NA,"",   20.9041E-03,  -20.8951E-03,  -611.931E-06,   8.36725E-06
C:/temp/dataset/test2/16_4.odb,Step-1,Increment      1: Step Time =    1.000,"PART-1-1",           465,           -2.,          -15.,            0.,NA,NA,"",   20.0451E-03,  -20.0427E-03,   309.805E-06,   12.2549E-06
C:/temp/dataset/test2/16_4.odb,Step-1,Increment      1: Step Time =    1.000,"PART-1-1",           466,           -5.,      -14.0625,            0.,NA,NA,"",   21.0350E-03,  -20.8934E-03,  -2.43717E-03,   4.13535E-06
C:/temp/dataset/test2/16_4.odb,Step-1,Increment      1: Step Time =    1.000,"PART-1-1",           467,           -4.,          -15.,            0.,NA,NA,"",   20.1049E-03,  -20.0466E-03,  -1.53000E-03,   7.76252E-06
C:/temp/dataset/test2/16_4.odb,Step-1,Increment      1: Step Time =    1.000,"PART-1-1",           468,            3.,      -15.9375,            0.,NA,NA,"",   19.7414E-03,  -19.1314E-03,   4.86941E-03,   20.3533E-06
C:/temp/dataset/test2/16_4.odb,Step-1,Increment      1: Step Time =    1.000,"PART-1-1",           469,            4.,       -16.875,            0.,NA,NA,"",   19.1504E-03,  -18.2627E-03,   5.76282E-03,   20.3081E-06
C:/temp/dataset/test2/16_4.odb,Step-1,Increment      1: Step Time =    1.000,"PART-1-1",           470,            5.,      -15.9375,            0.,NA,NA,"",   20.2718E-03,  -19.1369E-03,   6.68776E-03,   14.8942E-06
C:/temp/dataset/test2/16_4.odb,Step-1,Increment      1: Step Time =    1.000,"PART-1-1",           471,            1.,      -15.9375,            0.,NA,NA,"",   19.3953E-03,  -19.1510E-03,   3.06913E-03,   23.2611E-06
C:/temp/dataset/test2/16_4.odb,Step-1,Increment      1: Step Time =    1.000,"PART-1-1",           472,            2.,       -16.875,            0.,NA,NA,"",   18.6999E-03,  -18.2714E-03,   3.98024E-03,   26.7228E-06
C:/temp/dataset/test2/16_4.odb,Step-1,Increment      1: Step Time =    1.000,"PART-1-1",           473,           -1.,      -15.9375,            0.,NA,NA,"",   19.2233E-03,  -19.1831E-03,   1.24157E-03,   22.7851E-06
C:/temp/dataset/test2/16_4.odb,Step-1,Increment      1: Step Time =    1.000,"PART-1-1",           474,            0.,       -16.875,            0.,NA,NA,"",   18.4407E-03,  -18.3115E-03,   2.17875E-03,   28.6697E-06
C:/temp/dataset/test2/16_4.odb,Step-1,Increment      1: Step Time =    1.000,"PART-1-1",           475,           -3.,      -15.9375,            0.,NA,NA,"",   19.2109E-03,  -19.2012E-03,  -611.958E-06,   19.3678E-06
C:/temp/dataset/test2/16_4.odb,Step-1,Increment      1: Step Time =    1.000,"PART-1-1",           476,           -2.,       -16.875,            0.,NA,NA,"",   18.3521E-03,  -18.3492E-03,   324.620E-06,   25.7708E-06
C:/temp/dataset/test2/16_4.odb,Step-1,Increment      1: Step Time =    1.000,"PART-1-1",           477,           -5.,      -15.9375,            0.,NA,NA,"",   19.3509E-03,  -19.1954E-03,  -2.44780E-03,   14.5401E-06
C:/temp/dataset/test2/16_4.odb,Step-1,Increment      1: Step Time =    1.000,"PART-1-1",           478,           -4.,       -16.875,            0.,NA,NA,"",   18.4205E-03,  -18.3556E-03,  -1.54494E-03,   19.4574E-06
C:/temp/dataset/test2/16_4.odb,Step-1,Increment      1: Step Time =    1.000,"PART-1-1",           479,            3.,      -17.8125,            0.,NA,NA,"",   18.0599E-03,  -17.3912E-03,   4.86883E-03,   40.7490E-06
C:/temp/dataset/test2/16_4.odb,Step-1,Increment      1: Step Time =    1.000,"PART-1-1",           480,            4.,        -18.75,            0.,NA,NA,"",   17.4899E-03,  -16.5262E-03,   5.72542E-03,   44.4106E-06
C:/temp/dataset/test2/16_4.odb,Step-1,Increment      1: Step Time =    1.000,"PART-1-1",           481,            5.,      -17.8125,            0.,NA,NA,"",   18.6327E-03,  -17.4057E-03,   6.64967E-03,   41.1579E-06
C:/temp/dataset/test2/16_4.odb,Step-1,Increment      1: Step Time =    1.000,"PART-1-1",           482,            1.,      -17.8125,            0.,NA,NA,"",   17.7031E-03,  -17.4278E-03,   3.11004E-03,   43.6355E-06
C:/temp/dataset/test2/16_4.odb,Step-1,Increment      1: Step Time =    1.000,"PART-1-1",           483,            2.,        -18.75,            0.,NA,NA,"",   17.0200E-03,  -16.5395E-03,   4.01548E-03,   48.5749E-06
C:/temp/dataset/test2/16_4.odb,Step-1,Increment      1: Step Time =    1.000,"PART-1-1",           484,           -1.,      -17.8125,            0.,NA,NA,"",   17.5308E-03,  -17.4840E-03,   1.27979E-03,   41.4493E-06
C:/temp/dataset/test2/16_4.odb,Step-1,Increment      1: Step Time =    1.000,"PART-1-1",           485,            0.,        -18.75,            0.,NA,NA,"",   16.7541E-03,  -16.6035E-03,   2.24142E-03,   49.9060E-06
C:/temp/dataset/test2/16_4.odb,Step-1,Increment      1: Step Time =    1.000,"PART-1-1",           486,           -3.,      -17.8125,            0.,NA,NA,"",   17.5245E-03,  -17.5138E-03,  -614.022E-06,   36.7896E-06
C:/temp/dataset/test2/16_4.odb,Step-1,Increment      1: Step Time =    1.000,"PART-1-1",           487,           -2.,        -18.75,            0.,NA,NA,"",   16.6612E-03,  -16.6574E-03,   352.383E-06,   43.8974E-06
C:/temp/dataset/test2/16_4.odb,Step-1,Increment      1: Step Time =    1.000,"PART-1-1",           488,           -5.,      -17.8125,            0.,NA,NA,"",   17.6733E-03,  -17.4979E-03,  -2.48412E-03,   37.7899E-06
C:/temp/dataset/test2/16_4.odb,Step-1,Increment      1: Step Time =    1.000,"PART-1-1",           489,           -4.,        -18.75,            0.,NA,NA,"",   16.7365E-03,  -16.6616E-03,  -1.58177E-03,   40.4494E-06
C:/temp/dataset/test2/16_4.odb,Step-1,Increment      1: Step Time =    1.000,"PART-1-1",           490,            3.,      -19.6875,            0.,NA,NA,"",   16.4021E-03,  -15.6619E-03,   4.87173E-03,   69.2975E-06
C:/temp/dataset/test2/16_4.odb,Step-1,Increment      1: Step Time =    1.000,"PART-1-1",           491,            4.,       -20.625,            0.,NA,NA,"",   15.8662E-03,  -14.8297E-03,   5.64069E-03,   83.9057E-06
C:/temp/dataset/test2/16_4.odb,Step-1,Increment      1: Step Time =    1.000,"PART-1-1",           492,            5.,      -19.6875,            0.,NA,NA,"",   17.0116E-03,  -15.6992E-03,   6.55210E-03,   94.0500E-06
C:/temp/dataset/test2/16_4.odb,Step-1,Increment      1: Step Time =    1.000,"PART-1-1",           493,            1.,      -19.6875,            0.,NA,NA,"",   16.0359E-03,  -15.7160E-03,   3.18719E-03,   64.9331E-06
C:/temp/dataset/test2/16_4.odb,Step-1,Increment      1: Step Time =    1.000,"PART-1-1",           494,            2.,       -20.625,            0.,NA,NA,"",   15.3942E-03,  -14.8435E-03,   4.08085E-03,   66.4044E-06
C:/temp/dataset/test2/16_4.odb,Step-1,Increment      1: Step Time =    1.000,"PART-1-1",           495,           -1.,      -19.6875,            0.,NA,NA,"",   15.8408E-03,  -15.7836E-03,   1.34515E-03,   58.1798E-06
C:/temp/dataset/test2/16_4.odb,Step-1,Increment      1: Step Time =    1.000,"PART-1-1",           496,            0.,       -20.625,            0.,NA,NA,"",   15.0849E-03,  -14.9028E-03,   2.33682E-03,   66.1135E-06
C:/temp/dataset/test2/16_4.odb,Step-1,Increment      1: Step Time =    1.000,"PART-1-1",           497,           -3.,      -19.6875,            0.,NA,NA,"",   15.8242E-03,  -15.8120E-03,  -621.342E-06,   52.9950E-06
C:/temp/dataset/test2/16_4.odb,Step-1,Increment      1: Step Time =    1.000,"PART-1-1",           498,           -2.,       -20.625,            0.,NA,NA,"",   14.9411E-03,  -14.9360E-03,   389.810E-06,   53.5263E-06
C:/temp/dataset/test2/16_4.odb,Step-1,Increment      1: Step Time =    1.000,"PART-1-1",           499,           -5.,      -19.6875,            0.,NA,NA,"",   15.9833E-03,  -15.7745E-03,  -2.57510E-03,   79.1564E-06
C:/temp/dataset/test2/16_4.odb,Step-1,Increment      1: Step Time =    1.000,"PART-1-1",           500,           -4.,       -20.625,            0.,NA,NA,"",   15.0109E-03,  -14.9194E-03,  -1.65524E-03,   68.4253E-06
C:/temp/dataset/test2/16_4.odb,Step-1,Increment      1: Step Time =    1.000,"PART-1-1",           501,            3.,      -21.5625,            0.,NA,NA,"",   14.8501E-03,  -14.0256E-03,   4.87948E-03,   74.1434E-06
C:/temp/dataset/test2/16_4.odb,Step-1,Increment      1: Step Time =    1.000,"PART-1-1",           502,            4.,         -22.5,            0.,NA,NA,"",   14.4282E-03,  -13.3302E-03,   5.52065E-03,   121.780E-06
C:/temp/dataset/test2/16_4.odb,Step-1,Increment      1: Step Time =    1.000,"PART-1-1",           503,            5.,      -21.5625,            0.,NA,NA,"",   15.4405E-03,  -14.0921E-03,   6.31034E-03,   196.299E-06
C:/temp/dataset/test2/16_4.odb,Step-1,Increment      1: Step Time =    1.000,"PART-1-1",           504,            1.,      -21.5625,            0.,NA,NA,"",   14.4367E-03,  -14.0560E-03,   3.29336E-03,   76.0994E-06
C:/temp/dataset/test2/16_4.odb,Step-1,Increment      1: Step Time =    1.000,"PART-1-1",           505,            2.,         -22.5,            0.,NA,NA,"",   13.9393E-03,  -13.2961E-03,   4.18563E-03,   71.5587E-06
C:/temp/dataset/test2/16_4.odb,Step-1,Increment      1: Step Time =    1.000,"PART-1-1",           506,           -1.,      -21.5625,            0.,NA,NA,"",   14.1211E-03,  -14.0496E-03,   1.41958E-03,   58.9796E-06
C:/temp/dataset/test2/16_4.odb,Step-1,Increment      1: Step Time =    1.000,"PART-1-1",           507,            0.,         -22.5,            0.,NA,NA,"",   13.4316E-03,  -13.2121E-03,   2.41850E-03,   91.2244E-06
C:/temp/dataset/test2/16_4.odb,Step-1,Increment      1: Step Time =    1.000,"PART-1-1",           508,           -3.,      -21.5625,            0.,NA,NA,"",   14.0370E-03,  -14.0223E-03,  -641.820E-06,   41.5255E-06
C:/temp/dataset/test2/16_4.odb,Step-1,Increment      1: Step Time =    1.000,"PART-1-1",           509,           -2.,         -22.5,            0.,NA,NA,"",   13.0923E-03,  -13.0859E-03,   409.896E-06,   53.4951E-06
C:/temp/dataset/test2/16_4.odb,Step-1,Increment      1: Step Time =    1.000,"PART-1-1",           510,           -5.,      -21.5625,            0.,NA,NA,"",   14.2196E-03,  -13.9500E-03,  -2.75557E-03,   131.467E-06
C:/temp/dataset/test2/16_4.odb,Step-1,Increment      1: Step Time =    1.000,"PART-1-1",           511,           -4.,         -22.5,            0.,NA,NA,"",   13.1314E-03,  -13.0117E-03,  -1.76925E-03,   88.1891E-06
C:/temp/dataset/test2/16_4.odb,Step-1,Increment      1: Step Time =    1.000,"PART-1-1",           512,            3.,      -23.4375,            0.,NA,NA,"",   13.6514E-03,  -12.7187E-03,   4.95954E-03,   149.286E-06
C:/temp/dataset/test2/16_4.odb,Step-1,Increment      1: Step Time =    1.000,"PART-1-1",           513,            4.,       -24.375,            0.,NA,NA,"",   13.5565E-03,  -12.4723E-03,   5.31242E-03,   283.745E-06
C:/temp/dataset/test2/16_4.odb,Step-1,Increment      1: Step Time =    1.000,"PART-1-1",           514,            5.,      -23.4375,            0.,NA,NA,"",   14.1541E-03,  -12.8803E-03,   5.86827E-03,   320.352E-06
C:/temp/dataset/test2/16_4.odb,Step-1,Increment      1: Step Time =    1.000,"PART-1-1",           515,            1.,      -23.4375,            0.,NA,NA,"",   12.9579E-03,  -12.5157E-03,   3.35602E-03,   245.657E-06
C:/temp/dataset/test2/16_4.odb,Step-1,Increment      1: Step Time =    1.000,"PART-1-1",           516,            2.,       -24.375,            0.,NA,NA,"",   12.8275E-03,  -12.1278E-03,   4.17882E-03,   445.992E-06
C:/temp/dataset/test2/16_4.odb,Step-1,Increment      1: Step Time =    1.000,"PART-1-1",           517,           -1.,      -23.4375,            0.,NA,NA,"",   12.2560E-03,  -12.1742E-03,   1.41302E-03,   193.669E-06
C:/temp/dataset/test2/16_4.odb,Step-1,Increment      1: Step Time =    1.000,"PART-1-1",           518,            0.,       -24.375,            0.,NA,NA,"",   11.6349E-03,  -11.4085E-03,   2.28366E-03,   377.570E-06
C:/temp/dataset/test2/16_4.odb,Step-1,Increment      1: Step Time =    1.000,"PART-1-1",           519,           -3.,      -23.4375,            0.,NA,NA,"",   11.9922E-03,  -11.9727E-03,  -683.536E-06,   95.9332E-06
C:/temp/dataset/test2/16_4.odb,Step-1,Increment      1: Step Time =    1.000,"PART-1-1",           520,           -2.,       -24.375,            0.,NA,NA,"",   10.8836E-03,  -10.8779E-03,   352.201E-06,   257.010E-06
C:/temp/dataset/test2/16_4.odb,Step-1,Increment      1: Step Time =    1.000,"PART-1-1",           521,           -5.,      -23.4375,            0.,NA,NA,"",   12.2517E-03,  -11.8704E-03,  -3.03276E-03,   145.321E-06
C:/temp/dataset/test2/16_4.odb,Step-1,Increment      1: Step Time =    1.000,"PART-1-1",           522,           -4.,       -24.375,            0.,NA,NA,"",   10.8674E-03,  -10.7051E-03,  -1.87130E-03,   109.525E-06
C:/temp/dataset/test2/16_4.odb,Step-1,Increment      1: Step Time =    1.000,"PART-1-1",           523,            3.,      -25.3125,            0.,NA,NA,"",   13.4251E-03,  -12.5129E-03,   4.86446E-03,   1.14802E-03
C:/temp/dataset/test2/16_4.odb,Step-1,Increment      1: Step Time =    1.000,"PART-1-1",           524,            4.,        -26.25,            0.,NA,NA,"",   15.2567E-03,  -14.1982E-03,   5.58364E-03,   2.33053E-03
C:/temp/dataset/test2/16_4.odb,Step-1,Increment      1: Step Time =    1.000,"PART-1-1",           525,            5.,      -25.3125,            0.,NA,NA,"",   13.6761E-03,  -12.7904E-03,   4.84178E-03,   327.139E-06
C:/temp/dataset/test2/16_4.odb,Step-1,Increment      1: Step Time =    1.000,"PART-1-1",           526,            1.,      -25.3125,            0.,NA,NA,"",   11.3463E-03,  -10.9611E-03,   2.93113E-03,   831.013E-06
C:/temp/dataset/test2/16_4.odb,Step-1,Increment      1: Step Time =    1.000,"PART-1-1",           527,            2.,        -26.25,            0.,NA,NA,"",   11.5649E-03,  -11.0696E-03,   3.34813E-03,   1.51092E-03
C:/temp/dataset/test2/16_4.odb,Step-1,Increment      1: Step Time =    1.000,"PART-1-1",           528,           -1.,      -25.3125,            0.,NA,NA,"",   9.90745E-03,  -9.83904E-03,   1.16223E-03,   600.684E-06
C:/temp/dataset/test2/16_4.odb,Step-1,Increment      1: Step Time =    1.000,"PART-1-1",           529,            0.,        -26.25,            0.,NA,NA,"",   9.12168E-03,  -8.97556E-03,   1.62618E-03,   1.03523E-03
C:/temp/dataset/test2/16_4.odb,Step-1,Increment      1: Step Time =    1.000,"PART-1-1",           530,           -3.,      -25.3125,            0.,NA,NA,"",   9.38677E-03,  -9.36017E-03,  -706.116E-06,   399.611E-06
C:/temp/dataset/test2/16_4.odb,Step-1,Increment      1: Step Time =    1.000,"PART-1-1",           531,           -2.,        -26.25,            0.,NA,NA,"",   7.94518E-03,  -7.94359E-03,   159.107E-06,   749.479E-06
C:/temp/dataset/test2/16_4.odb,Step-1,Increment      1: Step Time =    1.000,"PART-1-1",           532,           -5.,      -25.3125,            0.,NA,NA,"",   9.85554E-03,  -9.29652E-03,  -3.27207E-03,   40.6571E-06
C:/temp/dataset/test2/16_4.odb,Step-1,Increment      1: Step Time =    1.000,"PART-1-1",           533,           -4.,        -26.25,            0.,NA,NA,"",   7.95119E-03,  -7.74335E-03,  -1.80608E-03,   326.716E-06
C:/temp/dataset/test2/16_4.odb,Step-1,Increment      1: Step Time =    1.000,"PART-1-1",           534,            3.,      -27.1875,            0.,NA,NA,"",   12.1050E-03,  -11.6627E-03,   3.24231E-03,   2.71010E-03
C:/temp/dataset/test2/16_4.odb,Step-1,Increment      1: Step Time =    1.000,"PART-1-1",           535,            4.,       -28.125,            0.,NA,NA,"",   12.0886E-03,  -11.8679E-03,   2.29976E-03,   3.96721E-03
C:/temp/dataset/test2/16_4.odb,Step-1,Increment      1: Step Time =    1.000,"PART-1-1",           536,            5.,      -27.1875,            0.,NA,NA,"",   18.4966E-03,  -17.7719E-03,   5.12688E-03,   3.67787E-03
C:/temp/dataset/test2/16_4.odb,Step-1,Increment      1: Step Time =    1.000,"PART-1-1",           537,            1.,      -27.1875,            0.,NA,NA,"",   8.48494E-03,  -8.32158E-03,   1.65699E-03,   1.65800E-03
C:/temp/dataset/test2/16_4.odb,Step-1,Increment      1: Step Time =    1.000,"PART-1-1",           538,            2.,       -28.125,            0.,NA,NA,"",   7.58330E-03,  -7.48838E-03,   1.19605E-03,   2.81033E-03
C:/temp/dataset/test2/16_4.odb,Step-1,Increment      1: Step Time =    1.000,"PART-1-1",           539,           -1.,      -27.1875,            0.,NA,NA,"",   6.57613E-03,  -6.55095E-03,   574.849E-06,   1.18982E-03
C:/temp/dataset/test2/16_4.odb,Step-1,Increment      1: Step Time =    1.000,"PART-1-1",           540,            0.,       -28.125,            0.,NA,NA,"",   5.12577E-03,  -5.09682E-03,   544.024E-06,   1.75160E-03
C:/temp/dataset/test2/16_4.odb,Step-1,Increment      1: Step Time =    1.000,"PART-1-1",           541,           -3.,      -27.1875,            0.,NA,NA,"",   5.92752E-03,  -5.89518E-03,  -618.312E-06,   946.749E-06
C:/temp/dataset/test2/16_4.odb,Step-1,Increment      1: Step Time =    1.000,"PART-1-1",           542,           -2.,       -28.125,            0.,NA,NA,"",   4.09490E-03,  -4.09474E-03,  -36.3375E-06,   1.30517E-03
C:/temp/dataset/test2/16_4.odb,Step-1,Increment      1: Step Time =    1.000,"PART-1-1",           543,           -5.,      -27.1875,            0.,NA,NA,"",   6.87270E-03,  -6.09419E-03,  -3.17723E-03,   470.076E-06
C:/temp/dataset/test2/16_4.odb,Step-1,Increment      1: Step Time =    1.000,"PART-1-1",           544,           -4.,       -28.125,            0.,NA,NA,"",   4.01786E-03,  -3.85508E-03,  -1.13207E-03,   879.039E-06
C:/temp/dataset/test2/16_4.odb,Step-1,Increment      1: Step Time =    1.000,"PART-1-1",           545,            3.,      -29.0625,            0.,NA,NA,"",   4.99243E-03,  -4.97365E-03,   432.626E-06,   3.59109E-03
C:/temp/dataset/test2/16_4.odb,Step-1,Increment      1: Step Time =    1.000,"PART-1-1",           546,            4.,          -30.,            0.,NA,NA,"",            0.,  -1.86612E-39,   295.080E-42,   5.90869E-03
C:/temp/dataset/test2/16_4.odb,Step-1,Increment      1: Step Time =    1.000,"PART-1-1",           547,            5.,      -29.0625,            0.,NA,NA,"",   10.5536E-03,  -9.99386E-03,   3.39147E-03,   4.55223E-03
C:/temp/dataset/test2/16_4.odb,Step-1,Increment      1: Step Time =    1.000,"PART-1-1",           548,            1.,      -29.0625,            0.,NA,NA,"",   3.20727E-03,  -3.19523E-03,   277.714E-06,   2.09016E-03
C:/temp/dataset/test2/16_4.odb,Step-1,Increment      1: Step Time =    1.000,"PART-1-1",           549,            2.,          -30.,            0.,NA,NA,"",            0.,  -2.25071E-39,   99.8187E-42,   2.91778E-03
C:/temp/dataset/test2/16_4.odb,Step-1,Increment      1: Step Time =    1.000,"PART-1-1",           550,           -1.,      -29.0625,            0.,NA,NA,"",   2.23960E-03,  -2.23938E-03,   31.8834E-06,   1.49146E-03
C:/temp/dataset/test2/16_4.odb,Step-1,Increment      1: Step Time =    1.000,"PART-1-1",           551,            0.,          -30.,            0.,NA,NA,"",            0.,  -1.35658E-39,  -76.5347E-42,   1.90040E-03
C:/temp/dataset/test2/16_4.odb,Step-1,Increment      1: Step Time =    1.000,"PART-1-1",           552,           -3.,      -29.0625,            0.,NA,NA,"",   1.78872E-03,  -1.76915E-03,  -263.867E-06,   1.22922E-03
C:/temp/dataset/test2/16_4.odb,Step-1,Increment      1: Step Time =    1.000,"PART-1-1",           553,           -2.,          -30.,            0.,NA,NA,"",            0.,  -988.409E-42,  -409.841E-42,   1.32077E-03
C:/temp/dataset/test2/16_4.odb,Step-1,Increment      1: Step Time =    1.000,"PART-1-1",           554,           -5.,      -29.0625,            0.,NA,NA,"",   2.68747E-03,  -2.17898E-03,  -1.57306E-03,   1.60850E-03
C:/temp/dataset/test2/16_4.odb,Step-1,Increment      1: Step Time =    1.000,"PART-1-1",           555,           -4.,          -30.,            0.,NA,NA,"",            0.,  -355.959E-42,  -1.30140E-39,   1.64775E-03
