ODB Name,Step,Frame,Part Instance Name,    êﬂì_ÉâÉxÉã,X,Y,Z,Section Name,Material Name,Section Point,   U-Magnitude,          U-U1,          U-U2,       S-Mises
C:/temp/dataset/test2/6_9.odb,Step-1,Increment      1: Step Time =    1.000,"PART-1-1",             1,            5.,           30.,            0.,NA,NA,"",       13.5464,      -13.5436,  -279.552E-03,   67.2725E-09
C:/temp/dataset/test2/6_9.odb,Step-1,Increment      1: Step Time =    1.000,"PART-1-1",             2,            3.,           30.,            0.,NA,NA,"",       13.4910,      -13.4652,  -833.858E-03,   817.752E-09
C:/temp/dataset/test2/6_9.odb,Step-1,Increment      1: Step Time =    1.000,"PART-1-1",             3,            1.,           30.,            0.,NA,NA,"",       13.4586,      -13.3869,      -1.38816,   1.56175E-06
C:/temp/dataset/test2/6_9.odb,Step-1,Increment      1: Step Time =    1.000,"PART-1-1",             4,           -1.,           30.,            0.,NA,NA,"",       13.4495,      -13.3085,      -1.94246,   1.55339E-06
C:/temp/dataset/test2/6_9.odb,Step-1,Increment      1: Step Time =    1.000,"PART-1-1",             5,           -3.,           30.,            0.,NA,NA,"",       13.4637,      -13.2302,      -2.49675,   809.831E-09
C:/temp/dataset/test2/6_9.odb,Step-1,Increment      1: Step Time =    1.000,"PART-1-1",             6,           -5.,           30.,            0.,NA,NA,"",       13.5011,      -13.1518,      -3.05105,   65.2632E-09
C:/temp/dataset/test2/6_9.odb,Step-1,Increment      1: Step Time =    1.000,"PART-1-1",             7,            5.,        28.125,            0.,NA,NA,"",       13.0255,      -13.0239,  -206.100E-03,   821.354E-09
C:/temp/dataset/test2/6_9.odb,Step-1,Increment      1: Step Time =    1.000,"PART-1-1",             8,            3.,        28.125,            0.,NA,NA,"",       12.9679,      -12.9456,  -760.407E-03,   793.810E-09
C:/temp/dataset/test2/6_9.odb,Step-1,Increment      1: Step Time =    1.000,"PART-1-1",             9,            1.,        28.125,            0.,NA,NA,"",       12.9342,      -12.8672,      -1.31471,   770.083E-09
C:/temp/dataset/test2/6_9.odb,Step-1,Increment      1: Step Time =    1.000,"PART-1-1",            10,           -1.,        28.125,            0.,NA,NA,"",       12.9247,      -12.7889,      -1.86901,   777.859E-09
C:/temp/dataset/test2/6_9.odb,Step-1,Increment      1: Step Time =    1.000,"PART-1-1",            11,           -3.,        28.125,            0.,NA,NA,"",       12.9395,      -12.7105,      -2.42331,   779.380E-09
C:/temp/dataset/test2/6_9.odb,Step-1,Increment      1: Step Time =    1.000,"PART-1-1",            12,           -5.,        28.125,            0.,NA,NA,"",       12.9784,      -12.6322,      -2.97760,   810.377E-09
C:/temp/dataset/test2/6_9.odb,Step-1,Increment      1: Step Time =    1.000,"PART-1-1",            13,            5.,         26.25,            0.,NA,NA,"",       12.5049,      -12.5042,  -132.645E-03,   1.45203E-06
C:/temp/dataset/test2/6_9.odb,Step-1,Increment      1: Step Time =    1.000,"PART-1-1",            14,            3.,         26.25,            0.,NA,NA,"",       12.4449,      -12.4259,  -686.955E-03,   2.31658E-06
C:/temp/dataset/test2/6_9.odb,Step-1,Increment      1: Step Time =    1.000,"PART-1-1",            15,            1.,         26.25,            0.,NA,NA,"",       12.4098,      -12.3475,      -1.24126,   4.72131E-06
C:/temp/dataset/test2/6_9.odb,Step-1,Increment      1: Step Time =    1.000,"PART-1-1",            16,           -1.,         26.25,            0.,NA,NA,"",       12.3999,      -12.2692,      -1.79556,   4.72588E-06
C:/temp/dataset/test2/6_9.odb,Step-1,Increment      1: Step Time =    1.000,"PART-1-1",            17,           -3.,         26.25,            0.,NA,NA,"",       12.4153,      -12.1909,      -2.34986,   2.34340E-06
C:/temp/dataset/test2/6_9.odb,Step-1,Increment      1: Step Time =    1.000,"PART-1-1",            18,           -5.,         26.25,            0.,NA,NA,"",       12.4558,      -12.1125,      -2.90415,   1.39924E-06
C:/temp/dataset/test2/6_9.odb,Step-1,Increment      1: Step Time =    1.000,"PART-1-1",            19,            5.,        24.375,            0.,NA,NA,"",       11.9847,      -11.9846,  -59.1892E-03,   1.86873E-06
C:/temp/dataset/test2/6_9.odb,Step-1,Increment      1: Step Time =    1.000,"PART-1-1",            20,            3.,        24.375,            0.,NA,NA,"",       11.9220,      -11.9062,  -613.500E-03,   11.1212E-06
C:/temp/dataset/test2/6_9.odb,Step-1,Increment      1: Step Time =    1.000,"PART-1-1",            21,            1.,        24.375,            0.,NA,NA,"",       11.8854,      -11.8279,      -1.16780,   15.4800E-06
C:/temp/dataset/test2/6_9.odb,Step-1,Increment      1: Step Time =    1.000,"PART-1-1",            22,           -1.,        24.375,            0.,NA,NA,"",       11.8751,      -11.7496,      -1.72210,   15.4314E-06
C:/temp/dataset/test2/6_9.odb,Step-1,Increment      1: Step Time =    1.000,"PART-1-1",            23,           -3.,        24.375,            0.,NA,NA,"",       11.8912,      -11.6712,      -2.27641,   11.1181E-06
C:/temp/dataset/test2/6_9.odb,Step-1,Increment      1: Step Time =    1.000,"PART-1-1",            24,           -5.,        24.375,            0.,NA,NA,"",       11.9335,      -11.5929,      -2.83070,   2.00304E-06
C:/temp/dataset/test2/6_9.odb,Step-1,Increment      1: Step Time =    1.000,"PART-1-1",            25,            5.,          22.5,            0.,NA,NA,"",       11.4649,      -11.4649,   14.2600E-03,   16.2092E-06
C:/temp/dataset/test2/6_9.odb,Step-1,Increment      1: Step Time =    1.000,"PART-1-1",            26,            3.,          22.5,            0.,NA,NA,"",       11.3993,      -11.3865,  -540.039E-03,   32.9860E-06
C:/temp/dataset/test2/6_9.odb,Step-1,Increment      1: Step Time =    1.000,"PART-1-1",            27,            1.,          22.5,            0.,NA,NA,"",       11.3610,      -11.3082,      -1.09431,   40.6214E-06
C:/temp/dataset/test2/6_9.odb,Step-1,Increment      1: Step Time =    1.000,"PART-1-1",            28,           -1.,          22.5,            0.,NA,NA,"",       11.3503,      -11.2299,      -1.64863,   40.2858E-06
C:/temp/dataset/test2/6_9.odb,Step-1,Increment      1: Step Time =    1.000,"PART-1-1",            29,           -3.,          22.5,            0.,NA,NA,"",       11.3671,      -11.1516,      -2.20298,   32.4537E-06
C:/temp/dataset/test2/6_9.odb,Step-1,Increment      1: Step Time =    1.000,"PART-1-1",            30,           -5.,          22.5,            0.,NA,NA,"",       11.4114,      -11.0733,      -2.75727,   16.2865E-06
C:/temp/dataset/test2/6_9.odb,Step-1,Increment      1: Step Time =    1.000,"PART-1-1",            31,            5.,        20.625,            0.,NA,NA,"",       10.9455,      -10.9451,   87.6753E-03,   57.8700E-06
C:/temp/dataset/test2/6_9.odb,Step-1,Increment      1: Step Time =    1.000,"PART-1-1",            32,            3.,        20.625,            0.,NA,NA,"",       10.8768,      -10.8668,  -466.571E-03,   78.9476E-06
C:/temp/dataset/test2/6_9.odb,Step-1,Increment      1: Step Time =    1.000,"PART-1-1",            33,            1.,        20.625,            0.,NA,NA,"",       10.8367,      -10.7886,      -1.02078,   90.2339E-06
C:/temp/dataset/test2/6_9.odb,Step-1,Increment      1: Step Time =    1.000,"PART-1-1",            34,           -1.,        20.625,            0.,NA,NA,"",       10.8255,      -10.7103,      -1.57512,   88.2321E-06
C:/temp/dataset/test2/6_9.odb,Step-1,Increment      1: Step Time =    1.000,"PART-1-1",            35,           -3.,        20.625,            0.,NA,NA,"",       10.8432,      -10.6320,      -2.12955,   75.0047E-06
C:/temp/dataset/test2/6_9.odb,Step-1,Increment      1: Step Time =    1.000,"PART-1-1",            36,           -5.,        20.625,            0.,NA,NA,"",       10.8896,      -10.5536,      -2.68389,   56.6803E-06
C:/temp/dataset/test2/6_9.odb,Step-1,Increment      1: Step Time =    1.000,"PART-1-1",            37,            5.,         18.75,            0.,NA,NA,"",       10.4266,      -10.4254,   160.976E-03,   160.261E-06
C:/temp/dataset/test2/6_9.odb,Step-1,Increment      1: Step Time =    1.000,"PART-1-1",            38,            3.,         18.75,            0.,NA,NA,"",       10.3545,      -10.3470,  -393.098E-03,   158.863E-06
C:/temp/dataset/test2/6_9.odb,Step-1,Increment      1: Step Time =    1.000,"PART-1-1",            39,            1.,         18.75,            0.,NA,NA,"",       10.3125,      -10.2689,  -947.168E-03,   168.441E-06
C:/temp/dataset/test2/6_9.odb,Step-1,Increment      1: Step Time =    1.000,"PART-1-1",            40,           -1.,         18.75,            0.,NA,NA,"",       10.3008,      -10.1908,      -1.50154,   160.383E-06
C:/temp/dataset/test2/6_9.odb,Step-1,Increment      1: Step Time =    1.000,"PART-1-1",            41,           -3.,         18.75,            0.,NA,NA,"",       10.3194,      -10.1124,      -2.05614,   141.534E-06
C:/temp/dataset/test2/6_9.odb,Step-1,Increment      1: Step Time =    1.000,"PART-1-1",            42,           -5.,         18.75,            0.,NA,NA,"",       10.3680,      -10.0340,      -2.61060,   146.783E-06
C:/temp/dataset/test2/6_9.odb,Step-1,Increment      1: Step Time =    1.000,"PART-1-1",            43,            5.,        16.875,            0.,NA,NA,"",       9.90844,      -9.90568,   234.022E-03,   366.388E-06
C:/temp/dataset/test2/6_9.odb,Step-1,Increment      1: Step Time =    1.000,"PART-1-1",            44,            3.,        16.875,            0.,NA,NA,"",       9.83258,      -9.82738,  -319.628E-03,   268.598E-06
C:/temp/dataset/test2/6_9.odb,Step-1,Increment      1: Step Time =    1.000,"PART-1-1",            45,            1.,        16.875,            0.,NA,NA,"",       9.78841,      -9.74936,  -873.449E-03,   251.179E-06
C:/temp/dataset/test2/6_9.odb,Step-1,Increment      1: Step Time =    1.000,"PART-1-1",            46,           -1.,        16.875,            0.,NA,NA,"",       9.77604,      -9.67120,      -1.42787,   224.105E-06
C:/temp/dataset/test2/6_9.odb,Step-1,Increment      1: Step Time =    1.000,"PART-1-1",            47,           -3.,        16.875,            0.,NA,NA,"",       9.79554,      -9.59278,      -1.98272,   202.121E-06
C:/temp/dataset/test2/6_9.odb,Step-1,Increment      1: Step Time =    1.000,"PART-1-1",            48,           -5.,        16.875,            0.,NA,NA,"",       9.84672,      -9.51415,      -2.53748,   305.335E-06
C:/temp/dataset/test2/6_9.odb,Step-1,Increment      1: Step Time =    1.000,"PART-1-1",            49,            5.,           15.,            0.,NA,NA,"",       9.39135,      -9.38635,   306.341E-03,   784.024E-06
C:/temp/dataset/test2/6_9.odb,Step-1,Increment      1: Step Time =    1.000,"PART-1-1",            50,            3.,           15.,            0.,NA,NA,"",       9.31143,      -9.30817,  -246.258E-03,   264.739E-06
C:/temp/dataset/test2/6_9.odb,Step-1,Increment      1: Step Time =    1.000,"PART-1-1",            51,            1.,           15.,            0.,NA,NA,"",       9.26461,      -9.23003,  -799.727E-03,   296.506E-06
C:/temp/dataset/test2/6_9.odb,Step-1,Increment      1: Step Time =    1.000,"PART-1-1",            52,           -1.,           15.,            0.,NA,NA,"",       9.25110,      -9.15146,      -1.35416,   216.632E-06
C:/temp/dataset/test2/6_9.odb,Step-1,Increment      1: Step Time =    1.000,"PART-1-1",            53,           -3.,           15.,            0.,NA,NA,"",       9.27144,      -9.07273,      -1.90924,   156.170E-06
C:/temp/dataset/test2/6_9.odb,Step-1,Increment      1: Step Time =    1.000,"PART-1-1",            54,           -5.,           15.,            0.,NA,NA,"",       9.32539,      -8.99382,      -2.46455,   501.685E-06
C:/temp/dataset/test2/6_9.odb,Step-1,Increment      1: Step Time =    1.000,"PART-1-1",            55,            5.,        13.125,            0.,NA,NA,"",       8.87661,      -8.86857,   377.591E-03,   1.78393E-03
C:/temp/dataset/test2/6_9.odb,Step-1,Increment      1: Step Time =    1.000,"PART-1-1",            56,            3.,        13.125,            0.,NA,NA,"",       8.79203,      -8.79033,  -173.070E-03,   1.11785E-03
C:/temp/dataset/test2/6_9.odb,Step-1,Increment      1: Step Time =    1.000,"PART-1-1",            57,            1.,        13.125,            0.,NA,NA,"",       8.74113,      -8.71088,  -726.508E-03,   1.06062E-03
C:/temp/dataset/test2/6_9.odb,Step-1,Increment      1: Step Time =    1.000,"PART-1-1",            58,           -1.,        13.125,            0.,NA,NA,"",       8.72544,      -8.63096,      -1.28055,   761.712E-06
C:/temp/dataset/test2/6_9.odb,Step-1,Increment      1: Step Time =    1.000,"PART-1-1",            59,           -3.,        13.125,            0.,NA,NA,"",       8.74643,      -8.55166,      -1.83550,   342.707E-06
C:/temp/dataset/test2/6_9.odb,Step-1,Increment      1: Step Time =    1.000,"PART-1-1",            60,           -5.,        13.125,            0.,NA,NA,"",       8.80353,      -8.47245,      -2.39163,   569.386E-06
C:/temp/dataset/test2/6_9.odb,Step-1,Increment      1: Step Time =    1.000,"PART-1-1",            61,            5.,         11.25,            0.,NA,NA,"",       8.37082,      -8.35902,   444.475E-03,   4.87360E-03
C:/temp/dataset/test2/6_9.odb,Step-1,Increment      1: Step Time =    1.000,"PART-1-1",            62,            3.,         11.25,            0.,NA,NA,"",       8.27579,      -8.27516,  -102.720E-03,   5.20168E-03
C:/temp/dataset/test2/6_9.odb,Step-1,Increment      1: Step Time =    1.000,"PART-1-1",            63,            1.,         11.25,            0.,NA,NA,"",       8.21655,      -8.19041,  -654.864E-03,   3.36712E-03
C:/temp/dataset/test2/6_9.odb,Step-1,Increment      1: Step Time =    1.000,"PART-1-1",            64,           -1.,         11.25,            0.,NA,NA,"",       8.19775,      -8.10838,      -1.20714,   2.33840E-03
C:/temp/dataset/test2/6_9.odb,Step-1,Increment      1: Step Time =    1.000,"PART-1-1",            65,           -3.,         11.25,            0.,NA,NA,"",       8.21952,      -8.02865,      -1.76105,   1.39687E-03
C:/temp/dataset/test2/6_9.odb,Step-1,Increment      1: Step Time =    1.000,"PART-1-1",            66,           -5.,         11.25,            0.,NA,NA,"",       8.28050,      -7.94942,      -2.31806,   164.458E-06
C:/temp/dataset/test2/6_9.odb,Step-1,Increment      1: Step Time =    1.000,"PART-1-1",            67,            5.,         9.375,            0.,NA,NA,"",       7.86289,      -7.84583,   517.684E-03,   9.55733E-03
C:/temp/dataset/test2/6_9.odb,Step-1,Increment      1: Step Time =    1.000,"PART-1-1",            68,            3.,         9.375,            0.,NA,NA,"",       7.75343,      -7.75335,  -35.6941E-03,   9.68410E-03
C:/temp/dataset/test2/6_9.odb,Step-1,Increment      1: Step Time =    1.000,"PART-1-1",            69,            1.,         9.375,            0.,NA,NA,"",       7.68689,      -7.66464,  -584.528E-03,   6.49165E-03
C:/temp/dataset/test2/6_9.odb,Step-1,Increment      1: Step Time =    1.000,"PART-1-1",            70,           -1.,         9.375,            0.,NA,NA,"",       7.66633,      -7.58210,      -1.13331,   4.66579E-03
C:/temp/dataset/test2/6_9.odb,Step-1,Increment      1: Step Time =    1.000,"PART-1-1",            71,           -3.,         9.375,            0.,NA,NA,"",       7.68991,      -7.50303,      -1.68501,   3.10462E-03
C:/temp/dataset/test2/6_9.odb,Step-1,Increment      1: Step Time =    1.000,"PART-1-1",            72,           -5.,         9.375,            0.,NA,NA,"",       7.75588,      -7.42460,      -2.24256,   1.18322E-03
C:/temp/dataset/test2/6_9.odb,Step-1,Increment      1: Step Time =    1.000,"PART-1-1",            73,            5.,           7.5,            0.,NA,NA,"",       7.33157,      -7.30740,   594.884E-03,   6.69474E-03
C:/temp/dataset/test2/6_9.odb,Step-1,Increment      1: Step Time =    1.000,"PART-1-1",            74,            3.,           7.5,            0.,NA,NA,"",       7.21669,      -7.21661,   33.6522E-03,   10.3830E-03
C:/temp/dataset/test2/6_9.odb,Step-1,Increment      1: Step Time =    1.000,"PART-1-1",            75,            1.,           7.5,            0.,NA,NA,"",       7.15050,      -7.13208,  -512.909E-03,   8.76463E-03
C:/temp/dataset/test2/6_9.odb,Step-1,Increment      1: Step Time =    1.000,"PART-1-1",            76,           -1.,           7.5,            0.,NA,NA,"",       7.13108,      -7.05219,      -1.05777,   6.92961E-03
C:/temp/dataset/test2/6_9.odb,Step-1,Increment      1: Step Time =    1.000,"PART-1-1",            77,           -3.,           7.5,            0.,NA,NA,"",       7.15798,      -6.97540,      -1.60640,   5.14047E-03
C:/temp/dataset/test2/6_9.odb,Step-1,Increment      1: Step Time =    1.000,"PART-1-1",            78,           -5.,           7.5,            0.,NA,NA,"",       7.23024,      -6.89895,      -2.16353,   3.61223E-03
C:/temp/dataset/test2/6_9.odb,Step-1,Increment      1: Step Time =    1.000,"PART-1-1",            79,            5.,         5.625,            0.,NA,NA,"",       6.79535,      -6.76304,   661.855E-03,   8.89239E-03
C:/temp/dataset/test2/6_9.odb,Step-1,Increment      1: Step Time =    1.000,"PART-1-1",            80,            3.,         5.625,            0.,NA,NA,"",       6.67813,      -6.67731,   104.985E-03,   7.68920E-03
C:/temp/dataset/test2/6_9.odb,Step-1,Increment      1: Step Time =    1.000,"PART-1-1",            81,            1.,         5.625,            0.,NA,NA,"",       6.61227,      -6.59767,  -439.272E-03,   9.19337E-03
C:/temp/dataset/test2/6_9.odb,Step-1,Increment      1: Step Time =    1.000,"PART-1-1",            82,           -1.,         5.625,            0.,NA,NA,"",       6.59477,      -6.52153,  -980.068E-03,   8.39887E-03
C:/temp/dataset/test2/6_9.odb,Step-1,Increment      1: Step Time =    1.000,"PART-1-1",            83,           -3.,         5.625,            0.,NA,NA,"",       6.62584,      -6.44802,      -1.52473,   7.14449E-03
C:/temp/dataset/test2/6_9.odb,Step-1,Increment      1: Step Time =    1.000,"PART-1-1",            84,           -5.,         5.625,            0.,NA,NA,"",       6.70545,      -6.37477,      -2.07974,   6.95661E-03
C:/temp/dataset/test2/6_9.odb,Step-1,Increment      1: Step Time =    1.000,"PART-1-1",            85,            5.,          3.75,            0.,NA,NA,"",       6.27239,      -6.23087,   720.558E-03,   12.1887E-03
C:/temp/dataset/test2/6_9.odb,Step-1,Increment      1: Step Time =    1.000,"PART-1-1",            86,            3.,          3.75,            0.,NA,NA,"",       6.14778,      -6.14537,   172.199E-03,   8.76060E-03
C:/temp/dataset/test2/6_9.odb,Step-1,Increment      1: Step Time =    1.000,"PART-1-1",            87,            1.,          3.75,            0.,NA,NA,"",       6.07827,      -6.06723,  -366.202E-03,   8.95103E-03
C:/temp/dataset/test2/6_9.odb,Step-1,Increment      1: Step Time =    1.000,"PART-1-1",            88,           -1.,          3.75,            0.,NA,NA,"",       6.06149,      -5.99412,  -901.232E-03,   9.05744E-03
C:/temp/dataset/test2/6_9.odb,Step-1,Increment      1: Step Time =    1.000,"PART-1-1",            89,           -3.,          3.75,            0.,NA,NA,"",       6.09673,      -5.92416,      -1.44031,   9.01314E-03
C:/temp/dataset/test2/6_9.odb,Step-1,Increment      1: Step Time =    1.000,"PART-1-1",            90,           -5.,          3.75,            0.,NA,NA,"",       6.18430,      -5.85510,      -1.99083,   10.7952E-03
C:/temp/dataset/test2/6_9.odb,Step-1,Increment      1: Step Time =    1.000,"PART-1-1",            91,            5.,         1.875,            0.,NA,NA,"",       5.75771,      -5.70583,   771.131E-03,   15.6085E-03
C:/temp/dataset/test2/6_9.odb,Step-1,Increment      1: Step Time =    1.000,"PART-1-1",            92,            3.,         1.875,            0.,NA,NA,"",       5.62545,      -5.62062,   233.072E-03,   10.7039E-03
C:/temp/dataset/test2/6_9.odb,Step-1,Increment      1: Step Time =    1.000,"PART-1-1",            93,            1.,         1.875,            0.,NA,NA,"",       5.55168,      -5.54378,  -296.099E-03,   9.03726E-03
C:/temp/dataset/test2/6_9.odb,Step-1,Increment      1: Step Time =    1.000,"PART-1-1",            94,           -1.,         1.875,            0.,NA,NA,"",       5.53479,      -5.47330,  -822.710E-03,   9.33562E-03
C:/temp/dataset/test2/6_9.odb,Step-1,Increment      1: Step Time =    1.000,"PART-1-1",            95,           -3.,         1.875,            0.,NA,NA,"",       5.57404,      -5.40712,      -1.35389,   10.8547E-03
C:/temp/dataset/test2/6_9.odb,Step-1,Increment      1: Step Time =    1.000,"PART-1-1",            96,           -5.,         1.875,            0.,NA,NA,"",       5.66988,      -5.34305,      -1.89719,   14.7675E-03
C:/temp/dataset/test2/6_9.odb,Step-1,Increment      1: Step Time =    1.000,"PART-1-1",            97,            5.,            0.,            0.,NA,NA,"",       5.25252,      -5.18918,   813.252E-03,   19.2196E-03
C:/temp/dataset/test2/6_9.odb,Step-1,Increment      1: Step Time =    1.000,"PART-1-1",            98,            3.,            0.,            0.,NA,NA,"",       5.11267,      -5.10459,   287.372E-03,   12.8054E-03
C:/temp/dataset/test2/6_9.odb,Step-1,Increment      1: Step Time =    1.000,"PART-1-1",            99,            1.,            0.,            0.,NA,NA,"",       5.03465,      -5.02939,  -230.064E-03,   9.35771E-03
C:/temp/dataset/test2/6_9.odb,Step-1,Increment      1: Step Time =    1.000,"PART-1-1",           100,           -1.,            0.,            0.,NA,NA,"",       5.01750,      -4.96179,  -745.596E-03,   9.54135E-03
C:/temp/dataset/test2/6_9.odb,Step-1,Increment      1: Step Time =    1.000,"PART-1-1",           101,           -3.,            0.,            0.,NA,NA,"",       5.06078,      -4.89981,      -1.26627,   12.7614E-03
C:/temp/dataset/test2/6_9.odb,Step-1,Increment      1: Step Time =    1.000,"PART-1-1",           102,           -5.,            0.,            0.,NA,NA,"",       5.16506,      -4.84143,      -1.79957,   18.7026E-03
C:/temp/dataset/test2/6_9.odb,Step-1,Increment      1: Step Time =    1.000,"PART-1-1",           103,            5.,        -1.875,            0.,NA,NA,"",       4.75860,      -4.68278,   846.084E-03,   22.9396E-03
C:/temp/dataset/test2/6_9.odb,Step-1,Increment      1: Step Time =    1.000,"PART-1-1",           104,            3.,        -1.875,            0.,NA,NA,"",       4.61145,      -4.59930,   334.590E-03,   14.9542E-03
C:/temp/dataset/test2/6_9.odb,Step-1,Increment      1: Step Time =    1.000,"PART-1-1",           105,            1.,        -1.875,            0.,NA,NA,"",       4.52940,      -4.52626,  -168.737E-03,   9.77116E-03
C:/temp/dataset/test2/6_9.odb,Step-1,Increment      1: Step Time =    1.000,"PART-1-1",           106,           -1.,        -1.875,            0.,NA,NA,"",       4.51212,      -4.46201,  -670.634E-03,   9.78381E-03
C:/temp/dataset/test2/6_9.odb,Step-1,Increment      1: Step Time =    1.000,"PART-1-1",           107,           -3.,        -1.875,            0.,NA,NA,"",       4.55960,      -4.40476,      -1.17816,   14.7471E-03
C:/temp/dataset/test2/6_9.odb,Step-1,Increment      1: Step Time =    1.000,"PART-1-1",           108,           -5.,        -1.875,            0.,NA,NA,"",       4.67244,      -4.35270,      -1.69873,   22.5672E-03
C:/temp/dataset/test2/6_9.odb,Step-1,Increment      1: Step Time =    1.000,"PART-1-1",           109,            5.,         -3.75,            0.,NA,NA,"",       4.27816,      -4.18898,   868.957E-03,   26.7241E-03
C:/temp/dataset/test2/6_9.odb,Step-1,Increment      1: Step Time =    1.000,"PART-1-1",           110,            3.,         -3.75,            0.,NA,NA,"",       4.12409,      -4.10708,   374.187E-03,   17.1441E-03
C:/temp/dataset/test2/6_9.odb,Step-1,Increment      1: Step Time =    1.000,"PART-1-1",           111,            1.,         -3.75,            0.,NA,NA,"",       4.03826,      -4.03669,  -112.641E-03,   10.2300E-03
C:/temp/dataset/test2/6_9.odb,Step-1,Increment      1: Step Time =    1.000,"PART-1-1",           112,           -1.,         -3.75,            0.,NA,NA,"",       4.02108,      -3.97631,  -598.385E-03,   10.0804E-03
C:/temp/dataset/test2/6_9.odb,Step-1,Increment      1: Step Time =    1.000,"PART-1-1",           113,           -3.,         -3.75,            0.,NA,NA,"",       4.07295,      -3.92434,      -1.09015,   16.7931E-03
C:/temp/dataset/test2/6_9.odb,Step-1,Increment      1: Step Time =    1.000,"PART-1-1",           114,           -5.,         -3.75,            0.,NA,NA,"",       4.19439,      -3.87916,      -1.59532,   26.3787E-03
C:/temp/dataset/test2/6_9.odb,Step-1,Increment      1: Step Time =    1.000,"PART-1-1",           115,            5.,        -5.625,            0.,NA,NA,"",       3.81346,      -3.71023,   881.269E-03,   30.5401E-03
C:/temp/dataset/test2/6_9.odb,Step-1,Increment      1: Step Time =    1.000,"PART-1-1",           116,            3.,        -5.625,            0.,NA,NA,"",       3.65295,      -3.63035,   405.635E-03,   19.3683E-03
C:/temp/dataset/test2/6_9.odb,Step-1,Increment      1: Step Time =    1.000,"PART-1-1",           117,            1.,        -5.625,            0.,NA,NA,"",       3.56361,      -3.56307,  -62.2578E-03,   10.7254E-03
C:/temp/dataset/test2/6_9.odb,Step-1,Increment      1: Step Time =    1.000,"PART-1-1",           118,           -1.,        -5.625,            0.,NA,NA,"",       3.54674,      -3.50702,  -529.332E-03,   10.4235E-03
C:/temp/dataset/test2/6_9.odb,Step-1,Increment      1: Step Time =    1.000,"PART-1-1",           119,           -3.,        -5.625,            0.,NA,NA,"",       3.60316,      -3.46082,      -1.00274,   18.8761E-03
C:/temp/dataset/test2/6_9.odb,Step-1,Increment      1: Step Time =    1.000,"PART-1-1",           120,           -5.,        -5.625,            0.,NA,NA,"",       3.73320,      -3.42302,      -1.48987,   30.1600E-03
C:/temp/dataset/test2/6_9.odb,Step-1,Increment      1: Step Time =    1.000,"PART-1-1",           121,            5.,          -7.5,            0.,NA,NA,"",       3.36681,      -3.24908,   882.515E-03,   34.3711E-03
C:/temp/dataset/test2/6_9.odb,Step-1,Increment      1: Step Time =    1.000,"PART-1-1",           122,            3.,          -7.5,            0.,NA,NA,"",       3.20043,      -3.17162,   428.459E-03,   21.6220E-03
C:/temp/dataset/test2/6_9.odb,Step-1,Increment      1: Step Time =    1.000,"PART-1-1",           123,            1.,          -7.5,            0.,NA,NA,"",       3.10786,      -3.10780,  -18.0257E-03,   11.2589E-03
C:/temp/dataset/test2/6_9.odb,Step-1,Increment      1: Step Time =    1.000,"PART-1-1",           124,           -1.,          -7.5,            0.,NA,NA,"",       3.09149,      -3.05648,  -463.896E-03,   10.8013E-03
C:/temp/dataset/test2/6_9.odb,Step-1,Increment      1: Step Time =    1.000,"PART-1-1",           125,           -3.,          -7.5,            0.,NA,NA,"",       3.15256,      -3.01645,  -916.343E-03,   20.9796E-03
C:/temp/dataset/test2/6_9.odb,Step-1,Increment      1: Step Time =    1.000,"PART-1-1",           126,           -5.,          -7.5,            0.,NA,NA,"",       3.29107,      -2.98646,      -1.38282,   33.9256E-03
C:/temp/dataset/test2/6_9.odb,Step-1,Increment      1: Step Time =    1.000,"PART-1-1",           127,            5.,        -9.375,            0.,NA,NA,"",       2.94049,      -2.80813,   872.276E-03,   38.2091E-03
C:/temp/dataset/test2/6_9.odb,Step-1,Increment      1: Step Time =    1.000,"PART-1-1",           128,            3.,        -9.375,            0.,NA,NA,"",       2.76893,      -2.73339,   442.258E-03,   23.9001E-03
C:/temp/dataset/test2/6_9.odb,Step-1,Increment      1: Step Time =    1.000,"PART-1-1",           129,            1.,        -9.375,            0.,NA,NA,"",       2.67341,      -2.67334,   19.6773E-03,   11.8316E-03
C:/temp/dataset/test2/6_9.odb,Step-1,Increment      1: Step Time =    1.000,"PART-1-1",           130,           -1.,        -9.375,            0.,NA,NA,"",       2.65768,      -2.62703,  -402.440E-03,   11.2038E-03
C:/temp/dataset/test2/6_9.odb,Step-1,Increment      1: Step Time =    1.000,"PART-1-1",           131,           -3.,        -9.375,            0.,NA,NA,"",       2.72346,      -2.59348,  -831.326E-03,   23.0934E-03
C:/temp/dataset/test2/6_9.odb,Step-1,Increment      1: Step Time =    1.000,"PART-1-1",           132,           -5.,        -9.375,            0.,NA,NA,"",       2.87014,      -2.57165,      -1.27449,   37.6822E-03
C:/temp/dataset/test2/6_9.odb,Step-1,Increment      1: Step Time =    1.000,"PART-1-1",           133,            5.,        -11.25,            0.,NA,NA,"",       2.53674,      -2.39001,   850.225E-03,   42.0506E-03
C:/temp/dataset/test2/6_9.odb,Step-1,Increment      1: Step Time =    1.000,"PART-1-1",           134,            3.,        -11.25,            0.,NA,NA,"",       2.36085,      -2.31820,   446.711E-03,   26.1984E-03
C:/temp/dataset/test2/6_9.odb,Step-1,Increment      1: Step Time =    1.000,"PART-1-1",           135,            1.,        -11.25,            0.,NA,NA,"",       2.26269,      -2.26212,   50.5475E-03,   12.4427E-03
C:/temp/dataset/test2/6_9.odb,Step-1,Increment      1: Step Time =    1.000,"PART-1-1",           136,           -1.,        -11.25,            0.,NA,NA,"",       2.24770,      -2.22103,  -345.253E-03,   11.6238E-03
C:/temp/dataset/test2/6_9.odb,Step-1,Increment      1: Step Time =    1.000,"PART-1-1",           137,           -3.,        -11.25,            0.,NA,NA,"",       2.31815,      -2.19417,  -747.957E-03,   25.2111E-03
C:/temp/dataset/test2/6_9.odb,Step-1,Increment      1: Step Time =    1.000,"PART-1-1",           138,           -5.,        -11.25,            0.,NA,NA,"",       2.47250,      -2.18076,      -1.16514,   41.4322E-03
C:/temp/dataset/test2/6_9.odb,Step-1,Increment      1: Step Time =    1.000,"PART-1-1",           139,            5.,       -13.125,            0.,NA,NA,"",       2.15770,      -1.99740,   816.130E-03,   45.8935E-03
C:/temp/dataset/test2/6_9.odb,Step-1,Increment      1: Step Time =    1.000,"PART-1-1",           140,            3.,       -13.125,            0.,NA,NA,"",       1.97856,      -1.92865,   441.595E-03,   28.5130E-03
C:/temp/dataset/test2/6_9.odb,Step-1,Increment      1: Step Time =    1.000,"PART-1-1",           141,            1.,       -13.125,            0.,NA,NA,"",       1.87810,      -1.87663,   74.3688E-03,   13.0902E-03
C:/temp/dataset/test2/6_9.odb,Step-1,Increment      1: Step Time =    1.000,"PART-1-1",           142,           -1.,       -13.125,            0.,NA,NA,"",       1.86394,      -1.84084,  -292.537E-03,   12.0560E-03
C:/temp/dataset/test2/6_9.odb,Step-1,Increment      1: Step Time =    1.000,"PART-1-1",           143,           -3.,       -13.125,            0.,NA,NA,"",       1.93891,      -1.82078,  -666.421E-03,   27.3286E-03
C:/temp/dataset/test2/6_9.odb,Step-1,Increment      1: Step Time =    1.000,"PART-1-1",           144,           -5.,       -13.125,            0.,NA,NA,"",       2.10012,      -1.81593,      -1.05493,   45.1760E-03
C:/temp/dataset/test2/6_9.odb,Step-1,Increment      1: Step Time =    1.000,"PART-1-1",           145,            5.,          -15.,            0.,NA,NA,"",       1.80539,      -1.63301,   769.869E-03,   49.7352E-03
C:/temp/dataset/test2/6_9.odb,Step-1,Increment      1: Step Time =    1.000,"PART-1-1",           146,            3.,          -15.,            0.,NA,NA,"",       1.62441,      -1.56734,   426.785E-03,   30.8406E-03
C:/temp/dataset/test2/6_9.odb,Step-1,Increment      1: Step Time =    1.000,"PART-1-1",           147,            1.,          -15.,            0.,NA,NA,"",       1.52208,      -1.51936,   91.0237E-03,   13.7718E-03
C:/temp/dataset/test2/6_9.odb,Step-1,Increment      1: Step Time =    1.000,"PART-1-1",           148,           -1.,          -15.,            0.,NA,NA,"",       1.50877,      -1.48884,  -244.398E-03,   12.4963E-03
C:/temp/dataset/test2/6_9.odb,Step-1,Increment      1: Step Time =    1.000,"PART-1-1",           149,           -3.,          -15.,            0.,NA,NA,"",       1.58798,      -1.47558,  -586.806E-03,   29.4432E-03
C:/temp/dataset/test2/6_9.odb,Step-1,Increment      1: Step Time =    1.000,"PART-1-1",           150,           -5.,          -15.,            0.,NA,NA,"",       1.75483,      -1.47934,  -943.911E-03,   48.9139E-03
C:/temp/dataset/test2/6_9.odb,Step-1,Increment      1: Step Time =    1.000,"PART-1-1",           151,            5.,       -16.875,            0.,NA,NA,"",       1.48161,      -1.29962,   711.436E-03,   53.5720E-03
C:/temp/dataset/test2/6_9.odb,Step-1,Increment      1: Step Time =    1.000,"PART-1-1",           152,            3.,       -16.875,            0.,NA,NA,"",       1.30068,      -1.23691,   402.276E-03,   33.1773E-03
C:/temp/dataset/test2/6_9.odb,Step-1,Increment      1: Step Time =    1.000,"PART-1-1",           153,            1.,       -16.875,            0.,NA,NA,"",       1.19704,      -1.19282,   100.502E-03,   14.4867E-03
C:/temp/dataset/test2/6_9.odb,Step-1,Increment      1: Step Time =    1.000,"PART-1-1",           154,           -1.,       -16.875,            0.,NA,NA,"",       1.18457,      -1.16742,  -200.839E-03,   12.9410E-03
C:/temp/dataset/test2/6_9.odb,Step-1,Increment      1: Step Time =    1.000,"PART-1-1",           155,           -3.,       -16.875,            0.,NA,NA,"",       1.26755,      -1.16083,  -509.093E-03,   31.5526E-03
C:/temp/dataset/test2/6_9.odb,Step-1,Increment      1: Step Time =    1.000,"PART-1-1",           156,           -5.,       -16.875,            0.,NA,NA,"",       1.43822,      -1.17311,  -832.045E-03,   52.6484E-03
C:/temp/dataset/test2/6_9.odb,Step-1,Increment      1: Step Time =    1.000,"PART-1-1",           157,            5.,        -18.75,            0.,NA,NA,"",       1.18780,      -1.00001,   640.967E-03,   57.3904E-03
C:/temp/dataset/test2/6_9.odb,Step-1,Increment      1: Step Time =    1.000,"PART-1-1",           158,            3.,        -18.75,            0.,NA,NA,"",       1.00955,  -940.022E-03,   368.183E-03,   35.5226E-03
C:/temp/dataset/test2/6_9.odb,Step-1,Increment      1: Step Time =    1.000,"PART-1-1",           159,            1.,        -18.75,            0.,NA,NA,"",   905.409E-03,  -899.541E-03,   102.908E-03,   15.2370E-03
C:/temp/dataset/test2/6_9.odb,Step-1,Increment      1: Step Time =    1.000,"PART-1-1",           160,           -1.,        -18.75,            0.,NA,NA,"",   893.737E-03,  -878.979E-03,  -161.746E-03,   13.3874E-03
C:/temp/dataset/test2/6_9.odb,Step-1,Increment      1: Step Time =    1.000,"PART-1-1",           161,           -3.,        -18.75,            0.,NA,NA,"",   979.732E-03,  -878.781E-03,  -433.149E-03,   33.6571E-03
C:/temp/dataset/test2/6_9.odb,Step-1,Increment      1: Step Time =    1.000,"PART-1-1",           162,           -5.,        -18.75,            0.,NA,NA,"",       1.15155,  -899.372E-03,  -719.169E-03,   56.3812E-03
C:/temp/dataset/test2/6_9.odb,Step-1,Increment      1: Step Time =    1.000,"PART-1-1",           163,            5.,       -20.625,            0.,NA,NA,"",   924.892E-03,  -737.029E-03,   558.760E-03,   61.1814E-03
C:/temp/dataset/test2/6_9.odb,Step-1,Increment      1: Step Time =    1.000,"PART-1-1",           164,            3.,       -20.625,            0.,NA,NA,"",   753.019E-03,  -679.386E-03,   324.764E-03,   37.8704E-03
C:/temp/dataset/test2/6_9.odb,Step-1,Increment      1: Step Time =    1.000,"PART-1-1",           165,            1.,       -20.625,            0.,NA,NA,"",   649.575E-03,  -642.069E-03,   98.4597E-03,   16.0494E-03
C:/temp/dataset/test2/6_9.odb,Step-1,Increment      1: Step Time =    1.000,"PART-1-1",           166,           -1.,       -20.625,            0.,NA,NA,"",   638.638E-03,  -625.908E-03,  -126.877E-03,   13.8516E-03
C:/temp/dataset/test2/6_9.odb,Step-1,Increment      1: Step Time =    1.000,"PART-1-1",           167,           -3.,       -20.625,            0.,NA,NA,"",   726.470E-03,  -631.728E-03,  -358.718E-03,   35.7540E-03
C:/temp/dataset/test2/6_9.odb,Step-1,Increment      1: Step Time =    1.000,"PART-1-1",           168,           -5.,       -20.625,            0.,NA,NA,"",   895.528E-03,  -660.277E-03,  -604.984E-03,   60.1273E-03
C:/temp/dataset/test2/6_9.odb,Step-1,Increment      1: Step Time =    1.000,"PART-1-1",           169,            5.,         -22.5,            0.,NA,NA,"",   692.967E-03,  -513.461E-03,   465.362E-03,   64.8054E-03
C:/temp/dataset/test2/6_9.odb,Step-1,Increment      1: Step Time =    1.000,"PART-1-1",           170,            3.,         -22.5,            0.,NA,NA,"",   532.557E-03,  -457.653E-03,   272.343E-03,   40.2812E-03
C:/temp/dataset/test2/6_9.odb,Step-1,Increment      1: Step Time =    1.000,"PART-1-1",           171,            1.,         -22.5,            0.,NA,NA,"",   431.803E-03,  -422.850E-03,   87.4749E-03,   16.9457E-03
C:/temp/dataset/test2/6_9.odb,Step-1,Increment      1: Step Time =    1.000,"PART-1-1",           172,           -1.,         -22.5,            0.,NA,NA,"",   421.574E-03,  -410.546E-03,  -95.7934E-03,   14.3606E-03
C:/temp/dataset/test2/6_9.odb,Step-1,Increment      1: Step Time =    1.000,"PART-1-1",           173,           -3.,         -22.5,            0.,NA,NA,"",   509.369E-03,  -421.946E-03,  -285.339E-03,   37.8941E-03
C:/temp/dataset/test2/6_9.odb,Step-1,Increment      1: Step Time =    1.000,"PART-1-1",           174,           -5.,         -22.5,            0.,NA,NA,"",   670.034E-03,  -457.921E-03,  -489.135E-03,   63.7912E-03
C:/temp/dataset/test2/6_9.odb,Step-1,Increment      1: Step Time =    1.000,"PART-1-1",           175,            5.,       -24.375,            0.,NA,NA,"",   491.029E-03,  -332.169E-03,   361.625E-03,   68.3737E-03
C:/temp/dataset/test2/6_9.odb,Step-1,Increment      1: Step Time =    1.000,"PART-1-1",           176,            3.,       -24.375,            0.,NA,NA,"",   348.971E-03,  -277.502E-03,   211.597E-03,   42.7194E-03
C:/temp/dataset/test2/6_9.odb,Step-1,Increment      1: Step Time =    1.000,"PART-1-1",           177,            1.,       -24.375,            0.,NA,NA,"",   254.369E-03,  -244.416E-03,   70.4597E-03,   18.2021E-03
C:/temp/dataset/test2/6_9.odb,Step-1,Increment      1: Step Time =    1.000,"PART-1-1",           178,           -1.,       -24.375,            0.,NA,NA,"",   244.977E-03,  -235.357E-03,  -67.9745E-03,   15.2125E-03
C:/temp/dataset/test2/6_9.odb,Step-1,Increment      1: Step Time =    1.000,"PART-1-1",           179,           -3.,       -24.375,            0.,NA,NA,"",   329.568E-03,  -251.877E-03,  -212.539E-03,   40.0761E-03
C:/temp/dataset/test2/6_9.odb,Step-1,Increment      1: Step Time =    1.000,"PART-1-1",           180,           -5.,       -24.375,            0.,NA,NA,"",   473.899E-03,  -294.736E-03,  -371.095E-03,   67.5046E-03
C:/temp/dataset/test2/6_9.odb,Step-1,Increment      1: Step Time =    1.000,"PART-1-1",           181,            5.,        -26.25,            0.,NA,NA,"",   316.126E-03,  -194.127E-03,   249.500E-03,   70.1174E-03
C:/temp/dataset/test2/6_9.odb,Step-1,Increment      1: Step Time =    1.000,"PART-1-1",           182,            3.,        -26.25,            0.,NA,NA,"",   199.807E-03,  -140.487E-03,   142.078E-03,   46.2868E-03
C:/temp/dataset/test2/6_9.odb,Step-1,Increment      1: Step Time =    1.000,"PART-1-1",           183,            1.,        -26.25,            0.,NA,NA,"",   119.071E-03,  -109.117E-03,   47.6590E-03,   19.0041E-03
C:/temp/dataset/test2/6_9.odb,Step-1,Increment      1: Step Time =    1.000,"PART-1-1",           184,           -1.,        -26.25,            0.,NA,NA,"",   111.017E-03,  -102.758E-03,  -42.0184E-03,   15.5880E-03
C:/temp/dataset/test2/6_9.odb,Step-1,Increment      1: Step Time =    1.000,"PART-1-1",           185,           -3.,        -26.25,            0.,NA,NA,"",   185.200E-03,  -123.255E-03,  -138.228E-03,   43.5263E-03
C:/temp/dataset/test2/6_9.odb,Step-1,Increment      1: Step Time =    1.000,"PART-1-1",           186,           -5.,        -26.25,            0.,NA,NA,"",   304.167E-03,  -171.190E-03,  -251.418E-03,   69.3879E-03
C:/temp/dataset/test2/6_9.odb,Step-1,Increment      1: Step Time =    1.000,"PART-1-1",           187,            5.,       -28.125,            0.,NA,NA,"",   164.404E-03,  -97.1584E-03,   132.623E-03,   76.7988E-03
C:/temp/dataset/test2/6_9.odb,Step-1,Increment      1: Step Time =    1.000,"PART-1-1",           188,            3.,       -28.125,            0.,NA,NA,"",   84.6859E-03,  -48.8279E-03,   69.1921E-03,   48.5614E-03
C:/temp/dataset/test2/6_9.odb,Step-1,Increment      1: Step Time =    1.000,"PART-1-1",           189,            1.,       -28.125,            0.,NA,NA,"",   31.4150E-03,  -22.2686E-03,   22.1587E-03,   17.6229E-03
C:/temp/dataset/test2/6_9.odb,Step-1,Increment      1: Step Time =    1.000,"PART-1-1",           190,           -1.,       -28.125,            0.,NA,NA,"",   26.4665E-03,  -18.5234E-03,  -18.9040E-03,   14.7076E-03
C:/temp/dataset/test2/6_9.odb,Step-1,Increment      1: Step Time =    1.000,"PART-1-1",           191,           -3.,       -28.125,            0.,NA,NA,"",   76.8670E-03,  -38.9729E-03,  -66.2545E-03,   45.4972E-03
C:/temp/dataset/test2/6_9.odb,Step-1,Increment      1: Step Time =    1.000,"PART-1-1",           192,           -5.,       -28.125,            0.,NA,NA,"",   156.728E-03,  -85.9761E-03,  -131.041E-03,   76.8521E-03
C:/temp/dataset/test2/6_9.odb,Step-1,Increment      1: Step Time =    1.000,"PART-1-1",           193,            5.,          -30.,            0.,NA,NA,"",            0.,  -22.5666E-39,   40.2134E-39,   96.1086E-03
C:/temp/dataset/test2/6_9.odb,Step-1,Increment      1: Step Time =    1.000,"PART-1-1",           194,            3.,          -30.,            0.,NA,NA,"",            0.,  -44.6124E-39,   107.799E-39,   33.5376E-03
C:/temp/dataset/test2/6_9.odb,Step-1,Increment      1: Step Time =    1.000,"PART-1-1",           195,            1.,          -30.,            0.,NA,NA,"",            0.,  -2.13098E-39,   31.3934E-39,   13.8626E-03
C:/temp/dataset/test2/6_9.odb,Step-1,Increment      1: Step Time =    1.000,"PART-1-1",           196,           -1.,          -30.,            0.,NA,NA,"",            0.,   26.0922E-39,  -37.6750E-39,   13.8752E-03
C:/temp/dataset/test2/6_9.odb,Step-1,Increment      1: Step Time =    1.000,"PART-1-1",           197,           -3.,          -30.,            0.,NA,NA,"",            0.,  -4.13551E-39,  -106.410E-39,   32.1215E-03
C:/temp/dataset/test2/6_9.odb,Step-1,Increment      1: Step Time =    1.000,"PART-1-1",           198,           -5.,          -30.,            0.,NA,NA,"",            0.,  -20.3459E-39,  -37.2068E-39,   91.6386E-03
C:/temp/dataset/test2/6_9.odb,Step-1,Increment      1: Step Time =    1.000,"PART-1-1",           199,            4.,           30.,            0.,NA,NA,"",       13.5159,      -13.5044,  -556.705E-03,   341.604E-09
C:/temp/dataset/test2/6_9.odb,Step-1,Increment      1: Step Time =    1.000,"PART-1-1",           200,            3.,       29.0625,            0.,NA,NA,"",       13.2294,      -13.2054,  -797.132E-03,   587.059E-09
C:/temp/dataset/test2/6_9.odb,Step-1,Increment      1: Step Time =    1.000,"PART-1-1",           201,            4.,        28.125,            0.,NA,NA,"",       12.9937,      -12.9847,  -483.253E-03,   677.339E-09
C:/temp/dataset/test2/6_9.odb,Step-1,Increment      1: Step Time =    1.000,"PART-1-1",           202,            5.,       29.0625,            0.,NA,NA,"",       13.2860,      -13.2837,  -242.826E-03,   322.248E-09
C:/temp/dataset/test2/6_9.odb,Step-1,Increment      1: Step Time =    1.000,"PART-1-1",           203,            2.,           30.,            0.,NA,NA,"",       13.4719,      -13.4260,      -1.11101,   1.22952E-06
C:/temp/dataset/test2/6_9.odb,Step-1,Increment      1: Step Time =    1.000,"PART-1-1",           204,            1.,       29.0625,            0.,NA,NA,"",       13.1964,      -13.1270,      -1.35144,   354.494E-09
C:/temp/dataset/test2/6_9.odb,Step-1,Increment      1: Step Time =    1.000,"PART-1-1",           205,            2.,        28.125,            0.,NA,NA,"",       12.9480,      -12.9064,      -1.03756,   547.743E-09
C:/temp/dataset/test2/6_9.odb,Step-1,Increment      1: Step Time =    1.000,"PART-1-1",           206,            0.,           30.,            0.,NA,NA,"",       13.4512,      -13.3477,      -1.66531,   1.55712E-06
C:/temp/dataset/test2/6_9.odb,Step-1,Increment      1: Step Time =    1.000,"PART-1-1",           207,           -1.,       29.0625,            0.,NA,NA,"",       13.1871,      -13.0487,      -1.90574,   347.792E-09
C:/temp/dataset/test2/6_9.odb,Step-1,Increment      1: Step Time =    1.000,"PART-1-1",           208,            0.,        28.125,            0.,NA,NA,"",       12.9264,      -12.8280,      -1.59186,   784.339E-09
C:/temp/dataset/test2/6_9.odb,Step-1,Increment      1: Step Time =    1.000,"PART-1-1",           209,           -2.,           30.,            0.,NA,NA,"",       13.4537,      -13.2693,      -2.21961,   1.21955E-06
C:/temp/dataset/test2/6_9.odb,Step-1,Increment      1: Step Time =    1.000,"PART-1-1",           210,           -3.,       29.0625,            0.,NA,NA,"",       13.2016,      -12.9703,      -2.46003,   575.558E-09
C:/temp/dataset/test2/6_9.odb,Step-1,Increment      1: Step Time =    1.000,"PART-1-1",           211,           -2.,        28.125,            0.,NA,NA,"",       12.9291,      -12.7497,      -2.14616,   553.672E-09
C:/temp/dataset/test2/6_9.odb,Step-1,Increment      1: Step Time =    1.000,"PART-1-1",           212,           -4.,           30.,            0.,NA,NA,"",       13.4795,      -13.1910,      -2.77390,   338.289E-09
C:/temp/dataset/test2/6_9.odb,Step-1,Increment      1: Step Time =    1.000,"PART-1-1",           213,           -5.,       29.0625,            0.,NA,NA,"",       13.2397,      -12.8920,      -3.01432,   317.034E-09
C:/temp/dataset/test2/6_9.odb,Step-1,Increment      1: Step Time =    1.000,"PART-1-1",           214,           -4.,        28.125,            0.,NA,NA,"",       12.9559,      -12.6713,      -2.70045,   666.691E-09
C:/temp/dataset/test2/6_9.odb,Step-1,Increment      1: Step Time =    1.000,"PART-1-1",           215,            3.,       27.1875,            0.,NA,NA,"",       12.7063,      -12.6857,  -723.681E-03,   1.01501E-06
C:/temp/dataset/test2/6_9.odb,Step-1,Increment      1: Step Time =    1.000,"PART-1-1",           216,            4.,         26.25,            0.,NA,NA,"",       12.4718,      -12.4651,  -409.801E-03,   927.534E-09
C:/temp/dataset/test2/6_9.odb,Step-1,Increment      1: Step Time =    1.000,"PART-1-1",           217,            5.,       27.1875,            0.,NA,NA,"",       12.7652,      -12.7641,  -169.373E-03,   1.04771E-06
C:/temp/dataset/test2/6_9.odb,Step-1,Increment      1: Step Time =    1.000,"PART-1-1",           218,            1.,       27.1875,            0.,NA,NA,"",       12.6720,      -12.6074,      -1.27799,   2.72453E-06
C:/temp/dataset/test2/6_9.odb,Step-1,Increment      1: Step Time =    1.000,"PART-1-1",           219,            2.,         26.25,            0.,NA,NA,"",       12.4242,      -12.3867,  -964.107E-03,   3.36813E-06
C:/temp/dataset/test2/6_9.odb,Step-1,Increment      1: Step Time =    1.000,"PART-1-1",           220,           -1.,       27.1875,            0.,NA,NA,"",       12.6623,      -12.5290,      -1.83229,   2.72858E-06
C:/temp/dataset/test2/6_9.odb,Step-1,Increment      1: Step Time =    1.000,"PART-1-1",           221,            0.,         26.25,            0.,NA,NA,"",       12.4017,      -12.3084,      -1.51841,   4.57290E-06
C:/temp/dataset/test2/6_9.odb,Step-1,Increment      1: Step Time =    1.000,"PART-1-1",           222,           -3.,       27.1875,            0.,NA,NA,"",       12.6774,      -12.4507,      -2.38658,   1.02708E-06
C:/temp/dataset/test2/6_9.odb,Step-1,Increment      1: Step Time =    1.000,"PART-1-1",           223,           -2.,         26.25,            0.,NA,NA,"",       12.4044,      -12.2300,      -2.07271,   3.38518E-06
C:/temp/dataset/test2/6_9.odb,Step-1,Increment      1: Step Time =    1.000,"PART-1-1",           224,           -5.,       27.1875,            0.,NA,NA,"",       12.7171,      -12.3723,      -2.94087,   1.02060E-06
C:/temp/dataset/test2/6_9.odb,Step-1,Increment      1: Step Time =    1.000,"PART-1-1",           225,           -4.,         26.25,            0.,NA,NA,"",       12.4324,      -12.1517,      -2.62700,   950.342E-09
C:/temp/dataset/test2/6_9.odb,Step-1,Increment      1: Step Time =    1.000,"PART-1-1",           226,            3.,       25.3125,            0.,NA,NA,"",       12.1834,      -12.1661,  -650.228E-03,   6.74602E-06
C:/temp/dataset/test2/6_9.odb,Step-1,Increment      1: Step Time =    1.000,"PART-1-1",           227,            4.,        24.375,            0.,NA,NA,"",       11.9501,      -11.9454,  -336.348E-03,   5.72232E-06
C:/temp/dataset/test2/6_9.odb,Step-1,Increment      1: Step Time =    1.000,"PART-1-1",           228,            5.,       25.3125,            0.,NA,NA,"",       12.2448,      -12.2444,  -95.9170E-03,   480.309E-09
C:/temp/dataset/test2/6_9.odb,Step-1,Increment      1: Step Time =    1.000,"PART-1-1",           229,            1.,       25.3125,            0.,NA,NA,"",       12.1476,      -12.0877,      -1.20453,   10.1049E-06
C:/temp/dataset/test2/6_9.odb,Step-1,Increment      1: Step Time =    1.000,"PART-1-1",           230,            2.,        24.375,            0.,NA,NA,"",       11.9004,      -11.8670,  -890.648E-03,   12.2904E-06
C:/temp/dataset/test2/6_9.odb,Step-1,Increment      1: Step Time =    1.000,"PART-1-1",           231,           -1.,       25.3125,            0.,NA,NA,"",       12.1375,      -12.0094,      -1.75883,   10.0774E-06
C:/temp/dataset/test2/6_9.odb,Step-1,Increment      1: Step Time =    1.000,"PART-1-1",           232,            0.,        24.375,            0.,NA,NA,"",       11.8769,      -11.7887,      -1.44495,   14.3622E-06
C:/temp/dataset/test2/6_9.odb,Step-1,Increment      1: Step Time =    1.000,"PART-1-1",           233,           -3.,       25.3125,            0.,NA,NA,"",       12.1532,      -11.9310,      -2.31314,   6.73058E-06
C:/temp/dataset/test2/6_9.odb,Step-1,Increment      1: Step Time =    1.000,"PART-1-1",           234,           -2.,        24.375,            0.,NA,NA,"",       11.8798,      -11.7104,      -1.99926,   12.2731E-06
C:/temp/dataset/test2/6_9.odb,Step-1,Increment      1: Step Time =    1.000,"PART-1-1",           235,           -5.,       25.3125,            0.,NA,NA,"",       12.1946,      -11.8527,      -2.86742,   541.548E-09
C:/temp/dataset/test2/6_9.odb,Step-1,Increment      1: Step Time =    1.000,"PART-1-1",           236,           -4.,        24.375,            0.,NA,NA,"",       11.9090,      -11.6321,      -2.55356,   5.73834E-06
C:/temp/dataset/test2/6_9.odb,Step-1,Increment      1: Step Time =    1.000,"PART-1-1",           237,            3.,       23.4375,            0.,NA,NA,"",       11.6606,      -11.6464,  -576.770E-03,   22.0230E-06
C:/temp/dataset/test2/6_9.odb,Step-1,Increment      1: Step Time =    1.000,"PART-1-1",           238,            4.,          22.5,            0.,NA,NA,"",       11.4287,      -11.4257,  -262.898E-03,   20.0456E-06
C:/temp/dataset/test2/6_9.odb,Step-1,Increment      1: Step Time =    1.000,"PART-1-1",           239,            5.,       23.4375,            0.,NA,NA,"",       11.7247,      -11.7247,  -22.4620E-03,   9.31984E-06
C:/temp/dataset/test2/6_9.odb,Step-1,Increment      1: Step Time =    1.000,"PART-1-1",           240,            1.,       23.4375,            0.,NA,NA,"",       11.6232,      -11.5681,      -1.13106,   27.9655E-06
C:/temp/dataset/test2/6_9.odb,Step-1,Increment      1: Step Time =    1.000,"PART-1-1",           241,            2.,          22.5,            0.,NA,NA,"",       11.3767,      -11.3474,  -817.174E-03,   33.4399E-06
C:/temp/dataset/test2/6_9.odb,Step-1,Increment      1: Step Time =    1.000,"PART-1-1",           242,           -1.,       23.4375,            0.,NA,NA,"",       11.6127,      -11.4897,      -1.68537,   27.7497E-06
C:/temp/dataset/test2/6_9.odb,Step-1,Increment      1: Step Time =    1.000,"PART-1-1",           243,            0.,          22.5,            0.,NA,NA,"",       11.3522,      -11.2691,      -1.37147,   37.0865E-06
C:/temp/dataset/test2/6_9.odb,Step-1,Increment      1: Step Time =    1.000,"PART-1-1",           244,           -3.,       23.4375,            0.,NA,NA,"",       11.6291,      -11.4114,      -2.23969,   21.7084E-06
C:/temp/dataset/test2/6_9.odb,Step-1,Increment      1: Step Time =    1.000,"PART-1-1",           245,           -2.,          22.5,            0.,NA,NA,"",       11.3553,      -11.1908,      -1.92580,   32.9967E-06
C:/temp/dataset/test2/6_9.odb,Step-1,Increment      1: Step Time =    1.000,"PART-1-1",           246,           -5.,       23.4375,            0.,NA,NA,"",       11.6724,      -11.3331,      -2.79398,   9.32254E-06
C:/temp/dataset/test2/6_9.odb,Step-1,Increment      1: Step Time =    1.000,"PART-1-1",           247,           -4.,          22.5,            0.,NA,NA,"",       11.3858,      -11.1124,      -2.48014,   19.8496E-06
C:/temp/dataset/test2/6_9.odb,Step-1,Increment      1: Step Time =    1.000,"PART-1-1",           248,            3.,       21.5625,            0.,NA,NA,"",       11.1380,      -11.1267,  -503.306E-03,   55.7463E-06
C:/temp/dataset/test2/6_9.odb,Step-1,Increment      1: Step Time =    1.000,"PART-1-1",           249,            4.,        20.625,            0.,NA,NA,"",       10.9076,      -10.9060,  -189.469E-03,   54.5599E-06
C:/temp/dataset/test2/6_9.odb,Step-1,Increment      1: Step Time =    1.000,"PART-1-1",           250,            5.,       21.5625,            0.,NA,NA,"",       11.2051,      -11.2050,   50.9760E-03,   37.4553E-06
C:/temp/dataset/test2/6_9.odb,Step-1,Increment      1: Step Time =    1.000,"PART-1-1",           251,            1.,       21.5625,            0.,NA,NA,"",       11.0989,      -11.0484,      -1.05756,   64.9393E-06
C:/temp/dataset/test2/6_9.odb,Step-1,Increment      1: Step Time =    1.000,"PART-1-1",           252,            2.,        20.625,            0.,NA,NA,"",       10.8532,      -10.8277,  -743.668E-03,   75.2387E-06
C:/temp/dataset/test2/6_9.odb,Step-1,Increment      1: Step Time =    1.000,"PART-1-1",           253,           -1.,       21.5625,            0.,NA,NA,"",       11.0879,      -10.9701,      -1.61188,   63.6814E-06
C:/temp/dataset/test2/6_9.odb,Step-1,Increment      1: Step Time =    1.000,"PART-1-1",           254,            0.,        20.625,            0.,NA,NA,"",       10.8275,      -10.7495,      -1.29793,   81.1908E-06
C:/temp/dataset/test2/6_9.odb,Step-1,Increment      1: Step Time =    1.000,"PART-1-1",           255,           -3.,       21.5625,            0.,NA,NA,"",       11.1051,      -10.8918,      -2.16626,   53.2859E-06
C:/temp/dataset/test2/6_9.odb,Step-1,Increment      1: Step Time =    1.000,"PART-1-1",           256,           -2.,        20.625,            0.,NA,NA,"",       10.8308,      -10.6712,      -1.85233,   72.8193E-06
C:/temp/dataset/test2/6_9.odb,Step-1,Increment      1: Step Time =    1.000,"PART-1-1",           257,           -5.,       21.5625,            0.,NA,NA,"",       11.1504,      -10.8135,      -2.72057,   36.5994E-06
C:/temp/dataset/test2/6_9.odb,Step-1,Increment      1: Step Time =    1.000,"PART-1-1",           258,           -4.,        20.625,            0.,NA,NA,"",       10.8628,      -10.5928,      -2.40674,   52.4677E-06
C:/temp/dataset/test2/6_9.odb,Step-1,Increment      1: Step Time =    1.000,"PART-1-1",           259,            3.,       19.6875,            0.,NA,NA,"",       10.6156,      -10.6069,  -429.835E-03,   116.956E-06
C:/temp/dataset/test2/6_9.odb,Step-1,Increment      1: Step Time =    1.000,"PART-1-1",           260,            4.,         18.75,            0.,NA,NA,"",       10.3868,      -10.3862,  -116.096E-03,   124.875E-06
C:/temp/dataset/test2/6_9.odb,Step-1,Increment      1: Step Time =    1.000,"PART-1-1",           261,            5.,       19.6875,            0.,NA,NA,"",       10.6860,      -10.6853,   124.348E-03,   109.703E-06
C:/temp/dataset/test2/6_9.odb,Step-1,Increment      1: Step Time =    1.000,"PART-1-1",           262,            1.,       19.6875,            0.,NA,NA,"",       10.5746,      -10.5287,  -983.988E-03,   127.495E-06
C:/temp/dataset/test2/6_9.odb,Step-1,Increment      1: Step Time =    1.000,"PART-1-1",           263,            2.,         18.75,            0.,NA,NA,"",       10.3297,      -10.3080,  -670.106E-03,   143.672E-06
C:/temp/dataset/test2/6_9.odb,Step-1,Increment      1: Step Time =    1.000,"PART-1-1",           264,           -1.,       19.6875,            0.,NA,NA,"",       10.5632,      -10.4505,      -1.53834,   122.267E-06
C:/temp/dataset/test2/6_9.odb,Step-1,Increment      1: Step Time =    1.000,"PART-1-1",           265,            0.,         18.75,            0.,NA,NA,"",       10.3029,      -10.2299,      -1.22432,   149.020E-06
C:/temp/dataset/test2/6_9.odb,Step-1,Increment      1: Step Time =    1.000,"PART-1-1",           266,           -3.,       19.6875,            0.,NA,NA,"",       10.5813,      -10.3722,      -2.09284,   106.988E-06
C:/temp/dataset/test2/6_9.odb,Step-1,Increment      1: Step Time =    1.000,"PART-1-1",           267,           -2.,         18.75,            0.,NA,NA,"",       10.3063,      -10.1516,      -1.77883,   132.030E-06
C:/temp/dataset/test2/6_9.odb,Step-1,Increment      1: Step Time =    1.000,"PART-1-1",           268,           -5.,       19.6875,            0.,NA,NA,"",       10.6288,      -10.2938,      -2.64723,   101.075E-06
C:/temp/dataset/test2/6_9.odb,Step-1,Increment      1: Step Time =    1.000,"PART-1-1",           269,           -4.,         18.75,            0.,NA,NA,"",       10.3400,      -10.0732,      -2.33341,   114.447E-06
C:/temp/dataset/test2/6_9.odb,Step-1,Increment      1: Step Time =    1.000,"PART-1-1",           270,            3.,       17.8125,            0.,NA,NA,"",       10.0935,      -10.0872,  -356.361E-03,   209.190E-06
C:/temp/dataset/test2/6_9.odb,Step-1,Increment      1: Step Time =    1.000,"PART-1-1",           271,            4.,        16.875,            0.,NA,NA,"",       9.86655,      -9.86646,  -42.8753E-03,   243.914E-06
C:/temp/dataset/test2/6_9.odb,Step-1,Increment      1: Step Time =    1.000,"PART-1-1",           272,            5.,       17.8125,            0.,NA,NA,"",       10.1674,      -10.1655,   197.547E-03,   259.833E-06
C:/temp/dataset/test2/6_9.odb,Step-1,Increment      1: Step Time =    1.000,"PART-1-1",           273,            1.,       17.8125,            0.,NA,NA,"",       10.0504,      -10.0091,  -910.321E-03,   202.811E-06
C:/temp/dataset/test2/6_9.odb,Step-1,Increment      1: Step Time =    1.000,"PART-1-1",           274,            2.,        16.875,            0.,NA,NA,"",       9.80653,      -9.78837,  -596.474E-03,   213.045E-06
C:/temp/dataset/test2/6_9.odb,Step-1,Increment      1: Step Time =    1.000,"PART-1-1",           275,           -1.,       17.8125,            0.,NA,NA,"",       10.0384,      -9.93099,      -1.46472,   186.473E-06
C:/temp/dataset/test2/6_9.odb,Step-1,Increment      1: Step Time =    1.000,"PART-1-1",           276,            0.,        16.875,            0.,NA,NA,"",       9.77824,      -9.71031,      -1.15059,   213.983E-06
C:/temp/dataset/test2/6_9.odb,Step-1,Increment      1: Step Time =    1.000,"PART-1-1",           277,           -3.,       17.8125,            0.,NA,NA,"",       10.0575,      -9.85264,      -2.01943,   169.252E-06
C:/temp/dataset/test2/6_9.odb,Step-1,Increment      1: Step Time =    1.000,"PART-1-1",           278,           -2.,        16.875,            0.,NA,NA,"",       9.78181,      -9.63202,      -1.70527,   180.240E-06
C:/temp/dataset/test2/6_9.odb,Step-1,Increment      1: Step Time =    1.000,"PART-1-1",           279,           -5.,       17.8125,            0.,NA,NA,"",       10.1074,      -9.77411,      -2.57402,   223.731E-06
C:/temp/dataset/test2/6_9.odb,Step-1,Increment      1: Step Time =    1.000,"PART-1-1",           280,           -4.,        16.875,            0.,NA,NA,"",       9.81720,      -9.55348,      -2.26016,   206.003E-06
C:/temp/dataset/test2/6_9.odb,Step-1,Increment      1: Step Time =    1.000,"PART-1-1",           281,            3.,       15.9375,            0.,NA,NA,"",       9.57185,      -9.56767,  -282.932E-03,   254.241E-06
C:/temp/dataset/test2/6_9.odb,Step-1,Increment      1: Step Time =    1.000,"PART-1-1",           282,            4.,           15.,            0.,NA,NA,"",       9.34720,      -9.34715,   30.0739E-03,   387.714E-06
C:/temp/dataset/test2/6_9.odb,Step-1,Increment      1: Step Time =    1.000,"PART-1-1",           283,            5.,       15.9375,            0.,NA,NA,"",       9.64970,      -9.64591,   270.294E-03,   562.895E-06
C:/temp/dataset/test2/6_9.odb,Step-1,Increment      1: Step Time =    1.000,"PART-1-1",           284,            1.,       15.9375,            0.,NA,NA,"",       9.52647,      -9.48966,  -836.571E-03,   238.915E-06
C:/temp/dataset/test2/6_9.odb,Step-1,Increment      1: Step Time =    1.000,"PART-1-1",           285,            2.,           15.,            0.,NA,NA,"",       9.28388,      -9.26915,  -522.831E-03,   218.357E-06
C:/temp/dataset/test2/6_9.odb,Step-1,Increment      1: Step Time =    1.000,"PART-1-1",           286,           -1.,       15.9375,            0.,NA,NA,"",       9.51362,      -9.41138,      -1.39101,   193.270E-06
C:/temp/dataset/test2/6_9.odb,Step-1,Increment      1: Step Time =    1.000,"PART-1-1",           287,            0.,           15.,            0.,NA,NA,"",       9.25366,      -9.19079,      -1.07685,   247.470E-06
C:/temp/dataset/test2/6_9.odb,Step-1,Increment      1: Step Time =    1.000,"PART-1-1",           288,           -3.,       15.9375,            0.,NA,NA,"",       9.53356,      -9.33284,      -1.94600,   172.272E-06
C:/temp/dataset/test2/6_9.odb,Step-1,Increment      1: Step Time =    1.000,"PART-1-1",           289,           -2.,           15.,            0.,NA,NA,"",       9.25704,      -9.11211,      -1.63164,   149.038E-06
C:/temp/dataset/test2/6_9.odb,Step-1,Increment      1: Step Time =    1.000,"PART-1-1",           290,           -5.,       15.9375,            0.,NA,NA,"",       9.58608,      -9.25408,      -2.50100,   398.956E-06
C:/temp/dataset/test2/6_9.odb,Step-1,Increment      1: Step Time =    1.000,"PART-1-1",           291,           -4.,           15.,            0.,NA,NA,"",       9.29426,      -9.03331,      -2.18693,   288.572E-06
C:/temp/dataset/test2/6_9.odb,Step-1,Increment      1: Step Time =    1.000,"PART-1-1",           292,            3.,       14.0625,            0.,NA,NA,"",       9.05141,      -9.04898,  -209.599E-03,   314.297E-06
C:/temp/dataset/test2/6_9.odb,Step-1,Increment      1: Step Time =    1.000,"PART-1-1",           293,            4.,        13.125,            0.,NA,NA,"",       8.83003,      -8.82944,   102.322E-03,   683.002E-06
C:/temp/dataset/test2/6_9.odb,Step-1,Increment      1: Step Time =    1.000,"PART-1-1",           294,            5.,       14.0625,            0.,NA,NA,"",       9.13348,      -9.12707,   342.148E-03,   926.251E-06
C:/temp/dataset/test2/6_9.odb,Step-1,Increment      1: Step Time =    1.000,"PART-1-1",           295,            1.,       14.0625,            0.,NA,NA,"",       9.00286,      -8.97047,  -762.973E-03,   553.604E-06
C:/temp/dataset/test2/6_9.odb,Step-1,Increment      1: Step Time =    1.000,"PART-1-1",           296,            2.,        13.125,            0.,NA,NA,"",       8.76238,      -8.75084,  -449.649E-03,   977.729E-06
C:/temp/dataset/test2/6_9.odb,Step-1,Increment      1: Step Time =    1.000,"PART-1-1",           297,           -1.,       14.0625,            0.,NA,NA,"",       8.98844,      -8.89138,      -1.31733,   408.795E-06
C:/temp/dataset/test2/6_9.odb,Step-1,Increment      1: Step Time =    1.000,"PART-1-1",           298,            0.,        13.125,            0.,NA,NA,"",       8.72875,      -8.67088,      -1.00346,   847.020E-06
C:/temp/dataset/test2/6_9.odb,Step-1,Increment      1: Step Time =    1.000,"PART-1-1",           299,           -3.,       14.0625,            0.,NA,NA,"",       9.00911,      -8.81238,      -1.87243,   136.886E-06
C:/temp/dataset/test2/6_9.odb,Step-1,Increment      1: Step Time =    1.000,"PART-1-1",           300,           -2.,        13.125,            0.,NA,NA,"",       8.73136,      -8.59125,      -1.55789,   538.154E-06
C:/temp/dataset/test2/6_9.odb,Step-1,Increment      1: Step Time =    1.000,"PART-1-1",           301,           -5.,       14.0625,            0.,NA,NA,"",       9.06456,      -8.73330,      -2.42813,   531.118E-06
C:/temp/dataset/test2/6_9.odb,Step-1,Increment      1: Step Time =    1.000,"PART-1-1",           302,           -4.,        13.125,            0.,NA,NA,"",       8.77056,      -8.51211,      -2.11347,   312.194E-06
C:/temp/dataset/test2/6_9.odb,Step-1,Increment      1: Step Time =    1.000,"PART-1-1",           303,            3.,       12.1875,            0.,NA,NA,"",       8.53410,      -8.53299,  -137.360E-03,   2.64124E-03
C:/temp/dataset/test2/6_9.odb,Step-1,Increment      1: Step Time =    1.000,"PART-1-1",           304,            4.,         11.25,            0.,NA,NA,"",       8.31986,      -8.31804,   173.636E-03,   5.19727E-03
C:/temp/dataset/test2/6_9.odb,Step-1,Increment      1: Step Time =    1.000,"PART-1-1",           305,            5.,       12.1875,            0.,NA,NA,"",       8.62063,      -8.61079,   411.784E-03,   1.20775E-03
C:/temp/dataset/test2/6_9.odb,Step-1,Increment      1: Step Time =    1.000,"PART-1-1",           306,            1.,       12.1875,            0.,NA,NA,"",       8.47920,      -8.45104,  -690.440E-03,   2.09638E-03
C:/temp/dataset/test2/6_9.odb,Step-1,Increment      1: Step Time =    1.000,"PART-1-1",           307,            2.,         11.25,            0.,NA,NA,"",       8.24126,      -8.23255,  -378.754E-03,   3.85552E-03
C:/temp/dataset/test2/6_9.odb,Step-1,Increment      1: Step Time =    1.000,"PART-1-1",           308,           -1.,       12.1875,            0.,NA,NA,"",       8.46196,      -8.37005,      -1.24385,   1.49823E-03
C:/temp/dataset/test2/6_9.odb,Step-1,Increment      1: Step Time =    1.000,"PART-1-1",           309,            0.,         11.25,            0.,NA,NA,"",       8.20203,      -8.14903,  -930.919E-03,   2.70099E-03
C:/temp/dataset/test2/6_9.odb,Step-1,Increment      1: Step Time =    1.000,"PART-1-1",           310,           -3.,       12.1875,            0.,NA,NA,"",       8.48328,      -8.29046,      -1.79842,   850.411E-06
C:/temp/dataset/test2/6_9.odb,Step-1,Increment      1: Step Time =    1.000,"PART-1-1",           311,           -2.,         11.25,            0.,NA,NA,"",       8.20362,      -8.06831,      -1.48379,   1.79214E-03
C:/temp/dataset/test2/6_9.odb,Step-1,Increment      1: Step Time =    1.000,"PART-1-1",           312,           -5.,       12.1875,            0.,NA,NA,"",       8.54220,      -8.21116,      -2.35501,   363.824E-06
C:/temp/dataset/test2/6_9.odb,Step-1,Increment      1: Step Time =    1.000,"PART-1-1",           313,           -4.,         11.25,            0.,NA,NA,"",       8.24526,      -7.98913,      -2.03914,   682.544E-06
C:/temp/dataset/test2/6_9.odb,Step-1,Increment      1: Step Time =    1.000,"PART-1-1",           314,            3.,       10.3125,            0.,NA,NA,"",       8.01599,      -8.01569,  -68.8973E-03,   7.14677E-03
C:/temp/dataset/test2/6_9.odb,Step-1,Increment      1: Step Time =    1.000,"PART-1-1",           315,            4.,         9.375,            0.,NA,NA,"",       7.80321,      -7.79951,   240.066E-03,   9.06804E-03
C:/temp/dataset/test2/6_9.odb,Step-1,Increment      1: Step Time =    1.000,"PART-1-1",           316,            5.,       10.3125,            0.,NA,NA,"",       8.12098,      -8.10679,   479.937E-03,   7.39628E-03
C:/temp/dataset/test2/6_9.odb,Step-1,Increment      1: Step Time =    1.000,"PART-1-1",           317,            1.,       10.3125,            0.,NA,NA,"",       7.95261,      -7.92843,  -619.686E-03,   4.82110E-03
C:/temp/dataset/test2/6_9.odb,Step-1,Increment      1: Step Time =    1.000,"PART-1-1",           318,            2.,         9.375,            0.,NA,NA,"",       7.71430,      -7.70806,  -310.307E-03,   7.67481E-03
C:/temp/dataset/test2/6_9.odb,Step-1,Increment      1: Step Time =    1.000,"PART-1-1",           319,           -1.,       10.3125,            0.,NA,NA,"",       7.93255,      -7.84573,      -1.17036,   3.46277E-03
C:/temp/dataset/test2/6_9.odb,Step-1,Increment      1: Step Time =    1.000,"PART-1-1",           320,            0.,         9.375,            0.,NA,NA,"",       7.67097,      -7.62275,  -858.733E-03,   5.41786E-03
C:/temp/dataset/test2/6_9.odb,Step-1,Increment      1: Step Time =    1.000,"PART-1-1",           321,           -3.,       10.3125,            0.,NA,NA,"",       7.95506,      -7.76616,      -1.72329,   2.23638E-03
C:/temp/dataset/test2/6_9.odb,Step-1,Increment      1: Step Time =    1.000,"PART-1-1",           322,           -2.,         9.375,            0.,NA,NA,"",       7.67269,      -7.54228,      -1.40860,   3.74392E-03
C:/temp/dataset/test2/6_9.odb,Step-1,Increment      1: Step Time =    1.000,"PART-1-1",           323,           -5.,       10.3125,            0.,NA,NA,"",       8.01839,      -7.68720,      -2.28066,   513.263E-06
C:/temp/dataset/test2/6_9.odb,Step-1,Increment      1: Step Time =    1.000,"PART-1-1",           324,           -4.,         9.375,            0.,NA,NA,"",       7.71776,      -7.46397,      -1.96289,   1.88819E-03
C:/temp/dataset/test2/6_9.odb,Step-1,Increment      1: Step Time =    1.000,"PART-1-1",           325,            3.,        8.4375,            0.,NA,NA,"",       7.48602,      -7.48602,  -1.54941E-03,   10.0034E-03
C:/temp/dataset/test2/6_9.odb,Step-1,Increment      1: Step Time =    1.000,"PART-1-1",           326,            4.,           7.5,            0.,NA,NA,"",       7.26726,      -7.26065,   309.747E-03,   8.64752E-03
C:/temp/dataset/test2/6_9.odb,Step-1,Increment      1: Step Time =    1.000,"PART-1-1",           327,            5.,        8.4375,            0.,NA,NA,"",       7.60133,      -7.58099,   555.713E-03,   7.79286E-03
C:/temp/dataset/test2/6_9.odb,Step-1,Increment      1: Step Time =    1.000,"PART-1-1",           328,            1.,        8.4375,            0.,NA,NA,"",       7.41936,      -7.39902,  -549.010E-03,   7.53587E-03
C:/temp/dataset/test2/6_9.odb,Step-1,Increment      1: Step Time =    1.000,"PART-1-1",           329,            2.,           7.5,            0.,NA,NA,"",       7.17775,      -7.17372,  -240.353E-03,   9.11950E-03
C:/temp/dataset/test2/6_9.odb,Step-1,Increment      1: Step Time =    1.000,"PART-1-1",           330,           -1.,        8.4375,            0.,NA,NA,"",       7.39904,      -7.31745,      -1.09580,   5.77957E-03
C:/temp/dataset/test2/6_9.odb,Step-1,Increment      1: Step Time =    1.000,"PART-1-1",           331,            0.,           7.5,            0.,NA,NA,"",       7.13496,      -7.09162,  -785.159E-03,   7.68674E-03
C:/temp/dataset/test2/6_9.odb,Step-1,Increment      1: Step Time =    1.000,"PART-1-1",           332,           -3.,        8.4375,            0.,NA,NA,"",       7.42414,      -7.23936,      -1.64606,   4.11065E-03
C:/temp/dataset/test2/6_9.odb,Step-1,Increment      1: Step Time =    1.000,"PART-1-1",           333,           -2.,           7.5,            0.,NA,NA,"",       7.13879,      -7.01355,      -1.33131,   5.82581E-03
C:/temp/dataset/test2/6_9.odb,Step-1,Increment      1: Step Time =    1.000,"PART-1-1",           334,           -5.,        8.4375,            0.,NA,NA,"",       7.49311,      -7.16177,      -2.20357,   2.38792E-03
C:/temp/dataset/test2/6_9.odb,Step-1,Increment      1: Step Time =    1.000,"PART-1-1",           335,           -4.,           7.5,            0.,NA,NA,"",       7.18854,      -6.93738,      -1.88358,   3.87366E-03
C:/temp/dataset/test2/6_9.odb,Step-1,Increment      1: Step Time =    1.000,"PART-1-1",           336,            3.,        6.5625,            0.,NA,NA,"",       6.94693,      -6.94658,   69.3247E-03,   8.80185E-03
C:/temp/dataset/test2/6_9.odb,Step-1,Increment      1: Step Time =    1.000,"PART-1-1",           337,            4.,         5.625,            0.,NA,NA,"",       6.73014,      -6.71931,   381.742E-03,   6.91110E-03
C:/temp/dataset/test2/6_9.odb,Step-1,Increment      1: Step Time =    1.000,"PART-1-1",           338,            5.,        6.5625,            0.,NA,NA,"",       7.06025,      -7.03206,   630.251E-03,   6.74937E-03
C:/temp/dataset/test2/6_9.odb,Step-1,Increment      1: Step Time =    1.000,"PART-1-1",           339,            1.,        6.5625,            0.,NA,NA,"",       6.88118,      -6.86469,  -476.225E-03,   8.92057E-03
C:/temp/dataset/test2/6_9.odb,Step-1,Increment      1: Step Time =    1.000,"PART-1-1",           340,            2.,         5.625,            0.,NA,NA,"",       6.63916,      -6.63703,  -168.158E-03,   8.54374E-03
C:/temp/dataset/test2/6_9.odb,Step-1,Increment      1: Step Time =    1.000,"PART-1-1",           341,           -1.,        6.5625,            0.,NA,NA,"",       6.86281,      -6.78672,      -1.01914,   7.65457E-03
C:/temp/dataset/test2/6_9.odb,Step-1,Increment      1: Step Time =    1.000,"PART-1-1",           342,            0.,         5.625,            0.,NA,NA,"",       6.59748,      -6.55920,  -709.612E-03,   8.62971E-03
C:/temp/dataset/test2/6_9.odb,Step-1,Increment      1: Step Time =    1.000,"PART-1-1",           343,           -3.,        6.5625,            0.,NA,NA,"",       6.89175,      -6.71149,      -1.56594,   6.12556E-03
C:/temp/dataset/test2/6_9.odb,Step-1,Increment      1: Step Time =    1.000,"PART-1-1",           344,           -2.,         5.625,            0.,NA,NA,"",       6.60424,      -6.48458,      -1.25151,   7.48015E-03
C:/temp/dataset/test2/6_9.odb,Step-1,Increment      1: Step Time =    1.000,"PART-1-1",           345,           -5.,        6.5625,            0.,NA,NA,"",       6.96758,      -6.63651,      -2.12225,   5.28211E-03
C:/temp/dataset/test2/6_9.odb,Step-1,Increment      1: Step Time =    1.000,"PART-1-1",           346,           -4.,         5.625,            0.,NA,NA,"",       6.65958,      -6.41157,      -1.80050,   6.43410E-03
C:/temp/dataset/test2/6_9.odb,Step-1,Increment      1: Step Time =    1.000,"PART-1-1",           347,            3.,        4.6875,            0.,NA,NA,"",       6.41200,      -6.41049,   139.358E-03,   8.06130E-03
C:/temp/dataset/test2/6_9.odb,Step-1,Increment      1: Step Time =    1.000,"PART-1-1",           348,            4.,          3.75,            0.,NA,NA,"",       6.20301,      -6.18704,   444.823E-03,   9.88098E-03
C:/temp/dataset/test2/6_9.odb,Step-1,Increment      1: Step Time =    1.000,"PART-1-1",           349,            5.,        4.6875,            0.,NA,NA,"",       6.53280,      -6.49602,   692.246E-03,   10.4575E-03
C:/temp/dataset/test2/6_9.odb,Step-1,Increment      1: Step Time =    1.000,"PART-1-1",           350,            1.,        4.6875,            0.,NA,NA,"",       6.34448,      -6.33170,  -402.496E-03,   9.04748E-03
C:/temp/dataset/test2/6_9.odb,Step-1,Increment      1: Step Time =    1.000,"PART-1-1",           351,            2.,          3.75,            0.,NA,NA,"",       6.10630,      -6.10552,  -97.8862E-03,   8.40764E-03
C:/temp/dataset/test2/6_9.odb,Step-1,Increment      1: Step Time =    1.000,"PART-1-1",           352,           -1.,        4.6875,            0.,NA,NA,"",       6.32752,      -6.25721,  -940.704E-03,   8.71511E-03
C:/temp/dataset/test2/6_9.odb,Step-1,Increment      1: Step Time =    1.000,"PART-1-1",           353,            0.,          3.75,            0.,NA,NA,"",       6.06337,      -6.03017,  -633.677E-03,   8.72883E-03
C:/temp/dataset/test2/6_9.odb,Step-1,Increment      1: Step Time =    1.000,"PART-1-1",           354,           -3.,        4.6875,            0.,NA,NA,"",       6.36070,      -6.18544,      -1.48282,   8.05748E-03
C:/temp/dataset/test2/6_9.odb,Step-1,Increment      1: Step Time =    1.000,"PART-1-1",           355,           -2.,          3.75,            0.,NA,NA,"",       6.07262,      -5.95888,      -1.16981,   8.64441E-03
C:/temp/dataset/test2/6_9.odb,Step-1,Increment      1: Step Time =    1.000,"PART-1-1",           356,           -5.,        4.6875,            0.,NA,NA,"",       6.44422,      -6.11418,      -2.03590,   8.87991E-03
C:/temp/dataset/test2/6_9.odb,Step-1,Increment      1: Step Time =    1.000,"PART-1-1",           357,           -4.,          3.75,            0.,NA,NA,"",       6.13392,      -5.88969,      -1.71364,   9.30379E-03
C:/temp/dataset/test2/6_9.odb,Step-1,Increment      1: Step Time =    1.000,"PART-1-1",           358,            3.,        2.8125,            0.,NA,NA,"",       5.88553,      -5.88201,   203.444E-03,   9.71010E-03
C:/temp/dataset/test2/6_9.odb,Step-1,Increment      1: Step Time =    1.000,"PART-1-1",           359,            4.,         1.875,            0.,NA,NA,"",       5.68418,      -5.66209,   500.658E-03,   12.7170E-03
C:/temp/dataset/test2/6_9.odb,Step-1,Increment      1: Step Time =    1.000,"PART-1-1",           360,            5.,        2.8125,            0.,NA,NA,"",       6.01395,      -5.96740,   746.871E-03,   13.8939E-03
C:/temp/dataset/test2/6_9.odb,Step-1,Increment      1: Step Time =    1.000,"PART-1-1",           361,            1.,        2.8125,            0.,NA,NA,"",       5.81391,      -5.80450,  -330.692E-03,   8.98034E-03
C:/temp/dataset/test2/6_9.odb,Step-1,Increment      1: Step Time =    1.000,"PART-1-1",           362,            2.,         1.875,            0.,NA,NA,"",       5.58136,      -5.58127,  -32.2454E-03,   9.27685E-03
C:/temp/dataset/test2/6_9.odb,Step-1,Increment      1: Step Time =    1.000,"PART-1-1",           363,           -1.,        2.8125,            0.,NA,NA,"",       5.79713,      -5.73271,  -861.859E-03,   9.18377E-03
C:/temp/dataset/test2/6_9.odb,Step-1,Increment      1: Step Time =    1.000,"PART-1-1",           364,            0.,         1.875,            0.,NA,NA,"",       5.53619,      -5.50787,  -559.290E-03,   8.68557E-03
C:/temp/dataset/test2/6_9.odb,Step-1,Increment      1: Step Time =    1.000,"PART-1-1",           365,           -3.,        2.8125,            0.,NA,NA,"",       5.83439,      -5.66460,      -1.39729,   9.91522E-03
C:/temp/dataset/test2/6_9.odb,Step-1,Increment      1: Step Time =    1.000,"PART-1-1",           366,           -2.,         1.875,            0.,NA,NA,"",       5.54740,      -5.43981,      -1.08726,   9.59033E-03
C:/temp/dataset/test2/6_9.odb,Step-1,Increment      1: Step Time =    1.000,"PART-1-1",           367,           -5.,        2.8125,            0.,NA,NA,"",       5.92606,      -5.59794,      -1.94455,   12.7858E-03
C:/temp/dataset/test2/6_9.odb,Step-1,Increment      1: Step Time =    1.000,"PART-1-1",           368,           -4.,         1.875,            0.,NA,NA,"",       5.61481,      -5.37497,      -1.62352,   12.2872E-03
C:/temp/dataset/test2/6_9.odb,Step-1,Increment      1: Step Time =    1.000,"PART-1-1",           369,            3.,     937.5E-03,            0.,NA,NA,"",       5.36775,      -5.36140,   261.077E-03,   11.7430E-03
C:/temp/dataset/test2/6_9.odb,Step-1,Increment      1: Step Time =    1.000,"PART-1-1",           370,            4.,            0.,            0.,NA,NA,"",       5.17480,      -5.14561,   548.861E-03,   15.6445E-03
C:/temp/dataset/test2/6_9.odb,Step-1,Increment      1: Step Time =    1.000,"PART-1-1",           371,            5.,     937.5E-03,            0.,NA,NA,"",       5.50384,      -5.44636,   793.303E-03,   17.4110E-03
C:/temp/dataset/test2/6_9.odb,Step-1,Increment      1: Step Time =    1.000,"PART-1-1",           372,            1.,     937.5E-03,            0.,NA,NA,"",       5.29183,      -5.28532,  -262.526E-03,   9.18765E-03
C:/temp/dataset/test2/6_9.odb,Step-1,Increment      1: Step Time =    1.000,"PART-1-1",           373,            2.,            0.,            0.,NA,NA,"",       5.06600,      -5.06592,   27.9989E-03,   10.4270E-03
C:/temp/dataset/test2/6_9.odb,Step-1,Increment      1: Step Time =    1.000,"PART-1-1",           374,           -1.,     937.5E-03,            0.,NA,NA,"",       5.27481,      -5.21623,  -783.925E-03,   9.43059E-03
C:/temp/dataset/test2/6_9.odb,Step-1,Increment      1: Step Time =    1.000,"PART-1-1",           375,            0.,            0.,            0.,NA,NA,"",       5.01851,      -4.99476,  -487.637E-03,   8.65958E-03
C:/temp/dataset/test2/6_9.odb,Step-1,Increment      1: Step Time =    1.000,"PART-1-1",           376,           -3.,     937.5E-03,            0.,NA,NA,"",       5.31606,      -5.15208,      -1.31018,   11.7952E-03
C:/temp/dataset/test2/6_9.odb,Step-1,Increment      1: Step Time =    1.000,"PART-1-1",           377,           -2.,            0.,            0.,NA,NA,"",       5.03158,      -4.93022,      -1.00483,   10.5423E-03
C:/temp/dataset/test2/6_9.odb,Step-1,Increment      1: Step Time =    1.000,"PART-1-1",           378,           -5.,     937.5E-03,            0.,NA,NA,"",       5.41610,      -5.09078,      -1.84883,   16.7373E-03
C:/temp/dataset/test2/6_9.odb,Step-1,Increment      1: Step Time =    1.000,"PART-1-1",           379,           -4.,            0.,            0.,NA,NA,"",       5.10522,      -4.87029,      -1.53086,   15.2892E-03
C:/temp/dataset/test2/6_9.odb,Step-1,Increment      1: Step Time =    1.000,"PART-1-1",           380,            3.,    -937.5E-03,            0.,NA,NA,"",       4.86048,      -4.85046,   311.900E-03,   13.8693E-03
C:/temp/dataset/test2/6_9.odb,Step-1,Increment      1: Step Time =    1.000,"PART-1-1",           381,            4.,        -1.875,            0.,NA,NA,"",       4.67686,      -4.63964,   588.904E-03,   18.6259E-03
C:/temp/dataset/test2/6_9.odb,Step-1,Increment      1: Step Time =    1.000,"PART-1-1",           382,            5.,    -937.5E-03,            0.,NA,NA,"",       5.00402,      -4.93455,   830.871E-03,   21.0797E-03
C:/temp/dataset/test2/6_9.odb,Step-1,Increment      1: Step Time =    1.000,"PART-1-1",           383,            1.,    -937.5E-03,            0.,NA,NA,"",       4.78041,      -4.77627,  -198.776E-03,   9.55477E-03
C:/temp/dataset/test2/6_9.odb,Step-1,Increment      1: Step Time =    1.000,"PART-1-1",           384,            2.,        -1.875,            0.,NA,NA,"",       4.56231,      -4.56157,   82.3224E-03,   11.6875E-03
C:/temp/dataset/test2/6_9.odb,Step-1,Increment      1: Step Time =    1.000,"PART-1-1",           385,           -1.,    -937.5E-03,            0.,NA,NA,"",       4.76317,      -4.71028,  -707.807E-03,   9.65798E-03
C:/temp/dataset/test2/6_9.odb,Step-1,Increment      1: Step Time =    1.000,"PART-1-1",           386,            0.,        -1.875,            0.,NA,NA,"",       4.51268,      -4.49314,  -419.429E-03,   8.65455E-03
C:/temp/dataset/test2/6_9.odb,Step-1,Increment      1: Step Time =    1.000,"PART-1-1",           387,           -3.,    -937.5E-03,            0.,NA,NA,"",       4.80853,      -4.65060,      -1.22224,   13.7469E-03
C:/temp/dataset/test2/6_9.odb,Step-1,Increment      1: Step Time =    1.000,"PART-1-1",           388,           -2.,        -1.875,            0.,NA,NA,"",       4.52775,      -4.43262,  -923.237E-03,   11.5829E-03
C:/temp/dataset/test2/6_9.odb,Step-1,Increment      1: Step Time =    1.000,"PART-1-1",           389,           -5.,    -937.5E-03,            0.,NA,NA,"",       4.91707,      -4.59530,      -1.74951,   20.6353E-03
C:/temp/dataset/test2/6_9.odb,Step-1,Increment      1: Step Time =    1.000,"PART-1-1",           390,           -4.,        -1.875,            0.,NA,NA,"",       4.60778,      -4.37820,      -1.43634,   18.2802E-03
C:/temp/dataset/test2/6_9.odb,Step-1,Increment      1: Step Time =    1.000,"PART-1-1",           391,            3.,       -2.8125,            0.,NA,NA,"",       4.36589,      -4.35140,   355.375E-03,   16.0407E-03
C:/temp/dataset/test2/6_9.odb,Step-1,Increment      1: Step Time =    1.000,"PART-1-1",           392,            4.,         -3.75,            0.,NA,NA,"",       4.19262,      -4.14650,   620.157E-03,   21.6519E-03
C:/temp/dataset/test2/6_9.odb,Step-1,Increment      1: Step Time =    1.000,"PART-1-1",           393,            5.,       -2.8125,            0.,NA,NA,"",       4.51656,      -4.43415,   858.805E-03,   24.8316E-03
C:/temp/dataset/test2/6_9.odb,Step-1,Increment      1: Step Time =    1.000,"PART-1-1",           394,            1.,       -2.8125,            0.,NA,NA,"",       4.28192,      -4.27963,  -140.003E-03,   9.99088E-03
C:/temp/dataset/test2/6_9.odb,Step-1,Increment      1: Step Time =    1.000,"PART-1-1",           395,            2.,         -3.75,            0.,NA,NA,"",       4.07262,      -4.07053,   130.206E-03,   13.0066E-03
C:/temp/dataset/test2/6_9.odb,Step-1,Increment      1: Step Time =    1.000,"PART-1-1",           396,           -1.,       -2.8125,            0.,NA,NA,"",       4.26466,      -4.21725,  -634.138E-03,   9.92902E-03
C:/temp/dataset/test2/6_9.odb,Step-1,Increment      1: Step Time =    1.000,"PART-1-1",           397,            0.,         -3.75,            0.,NA,NA,"",       4.02106,      -4.00534,  -355.209E-03,   8.65670E-03
C:/temp/dataset/test2/6_9.odb,Step-1,Increment      1: Step Time =    1.000,"PART-1-1",           398,           -3.,       -2.8125,            0.,NA,NA,"",       4.31431,      -4.16258,      -1.13411,   15.7665E-03
C:/temp/dataset/test2/6_9.odb,Step-1,Increment      1: Step Time =    1.000,"PART-1-1",           399,           -2.,         -3.75,            0.,NA,NA,"",       4.03835,      -3.94938,  -843.059E-03,   12.7115E-03
C:/temp/dataset/test2/6_9.odb,Step-1,Increment      1: Step Time =    1.000,"PART-1-1",           400,           -5.,       -2.8125,            0.,NA,NA,"",       4.43145,      -4.11389,      -1.64731,   24.4723E-03
C:/temp/dataset/test2/6_9.odb,Step-1,Increment      1: Step Time =    1.000,"PART-1-1",           401,           -4.,         -3.75,            0.,NA,NA,"",       4.12493,      -3.90101,      -1.34059,   21.2585E-03
C:/temp/dataset/test2/6_9.odb,Step-1,Increment      1: Step Time =    1.000,"PART-1-1",           402,            3.,       -4.6875,            0.,NA,NA,"",       3.88634,      -3.86662,   390.961E-03,   18.2487E-03
C:/temp/dataset/test2/6_9.odb,Step-1,Increment      1: Step Time =    1.000,"PART-1-1",           403,            4.,        -5.625,            0.,NA,NA,"",       3.72440,      -3.66864,   642.060E-03,   24.7042E-03
C:/temp/dataset/test2/6_9.odb,Step-1,Increment      1: Step Time =    1.000,"PART-1-1",           404,            5.,       -4.6875,            0.,NA,NA,"",       4.04369,      -3.94757,   876.467E-03,   28.6313E-03
C:/temp/dataset/test2/6_9.odb,Step-1,Increment      1: Step Time =    1.000,"PART-1-1",           405,            1.,       -4.6875,            0.,NA,NA,"",       3.79872,      -3.79773,  -86.7056E-03,   10.4682E-03
C:/temp/dataset/test2/6_9.odb,Step-1,Increment      1: Step Time =    1.000,"PART-1-1",           406,            2.,        -5.625,            0.,NA,NA,"",       3.59929,      -3.59522,   171.150E-03,   14.3735E-03
C:/temp/dataset/test2/6_9.odb,Step-1,Increment      1: Step Time =    1.000,"PART-1-1",           407,           -1.,       -4.6875,            0.,NA,NA,"",       3.78168,      -3.73947,  -563.430E-03,   10.2497E-03
C:/temp/dataset/test2/6_9.odb,Step-1,Increment      1: Step Time =    1.000,"PART-1-1",           408,            0.,        -5.625,            0.,NA,NA,"",       3.54605,      -3.53372,  -295.454E-03,   8.66111E-03
C:/temp/dataset/test2/6_9.odb,Step-1,Increment      1: Step Time =    1.000,"PART-1-1",           409,           -3.,       -4.6875,            0.,NA,NA,"",       3.83580,      -3.69033,      -1.04634,   17.8330E-03
C:/temp/dataset/test2/6_9.odb,Step-1,Increment      1: Step Time =    1.000,"PART-1-1",           410,           -2.,        -5.625,            0.,NA,NA,"",       3.56576,      -3.48278,  -764.784E-03,   13.9049E-03
C:/temp/dataset/test2/6_9.odb,Step-1,Increment      1: Step Time =    1.000,"PART-1-1",           411,           -5.,       -4.6875,            0.,NA,NA,"",       3.96155,      -3.64878,      -1.54282,   28.2682E-03
C:/temp/dataset/test2/6_9.odb,Step-1,Increment      1: Step Time =    1.000,"PART-1-1",           412,           -4.,        -5.625,            0.,NA,NA,"",       3.65897,      -3.44096,      -1.24412,   24.2278E-03
C:/temp/dataset/test2/6_9.odb,Step-1,Increment      1: Step Time =    1.000,"PART-1-1",           413,            3.,       -6.5625,            0.,NA,NA,"",       3.42421,      -3.39858,   418.152E-03,   20.4883E-03
C:/temp/dataset/test2/6_9.odb,Step-1,Increment      1: Step Time =    1.000,"PART-1-1",           414,            4.,          -7.5,            0.,NA,NA,"",       3.27457,      -3.20857,   654.115E-03,   27.7734E-03
C:/temp/dataset/test2/6_9.odb,Step-1,Increment      1: Step Time =    1.000,"PART-1-1",           415,            5.,       -6.5625,            0.,NA,NA,"",       3.58773,      -3.47730,   883.304E-03,   32.4542E-03
C:/temp/dataset/test2/6_9.odb,Step-1,Increment      1: Step Time =    1.000,"PART-1-1",           416,            1.,       -6.5625,            0.,NA,NA,"",       3.33322,      -3.33299,  -39.3469E-03,   10.9829E-03
C:/temp/dataset/test2/6_9.odb,Step-1,Increment      1: Step Time =    1.000,"PART-1-1",           417,            2.,          -7.5,            0.,NA,NA,"",       3.14475,      -3.13808,   204.701E-03,   15.7827E-03
C:/temp/dataset/test2/6_9.odb,Step-1,Increment      1: Step Time =    1.000,"PART-1-1",           418,           -1.,       -6.5625,            0.,NA,NA,"",       3.31658,      -3.27926,  -496.136E-03,   10.6106E-03
C:/temp/dataset/test2/6_9.odb,Step-1,Increment      1: Step Time =    1.000,"PART-1-1",           419,            0.,          -7.5,            0.,NA,NA,"",       3.09004,      -3.08066,  -240.592E-03,   8.66666E-03
C:/temp/dataset/test2/6_9.odb,Step-1,Increment      1: Step Time =    1.000,"PART-1-1",           420,           -3.,       -6.5625,            0.,NA,NA,"",       3.37532,      -3.23610,  -959.388E-03,   19.9273E-03
C:/temp/dataset/test2/6_9.odb,Step-1,Increment      1: Step Time =    1.000,"PART-1-1",           421,           -2.,          -7.5,            0.,NA,NA,"",       3.11232,      -3.03513,  -688.837E-03,   15.1409E-03
C:/temp/dataset/test2/6_9.odb,Step-1,Increment      1: Step Time =    1.000,"PART-1-1",           422,           -5.,       -6.5625,            0.,NA,NA,"",       3.50962,      -3.20216,      -1.43652,   32.0413E-03
C:/temp/dataset/test2/6_9.odb,Step-1,Increment      1: Step Time =    1.000,"PART-1-1",           423,           -4.,          -7.5,            0.,NA,NA,"",       3.21218,      -3.00028,      -1.14735,   27.1910E-03
C:/temp/dataset/test2/6_9.odb,Step-1,Increment      1: Step Time =    1.000,"PART-1-1",           424,            3.,       -8.4375,            0.,NA,NA,"",       2.98190,      -2.94978,   436.509E-03,   22.7545E-03
C:/temp/dataset/test2/6_9.odb,Step-1,Increment      1: Step Time =    1.000,"PART-1-1",           425,            4.,        -9.375,            0.,NA,NA,"",       2.84549,      -2.76886,   655.912E-03,   30.8539E-03
C:/temp/dataset/test2/6_9.odb,Step-1,Increment      1: Step Time =    1.000,"PART-1-1",           426,            5.,       -8.4375,            0.,NA,NA,"",       3.15096,      -3.02592,   878.854E-03,   36.2880E-03
C:/temp/dataset/test2/6_9.odb,Step-1,Increment      1: Step Time =    1.000,"PART-1-1",           427,            1.,       -8.4375,            0.,NA,NA,"",       2.88782,      -2.88782,   1.66361E-03,   11.5361E-03
C:/temp/dataset/test2/6_9.odb,Step-1,Increment      1: Step Time =    1.000,"PART-1-1",           428,            2.,        -9.375,            0.,NA,NA,"",       2.71140,      -2.70158,   230.469E-03,   17.2297E-03
C:/temp/dataset/test2/6_9.odb,Step-1,Increment      1: Step Time =    1.000,"PART-1-1",           429,           -1.,       -8.4375,            0.,NA,NA,"",       2.87175,      -2.83898,  -432.650E-03,   11.0012E-03
C:/temp/dataset/test2/6_9.odb,Step-1,Increment      1: Step Time =    1.000,"PART-1-1",           430,            0.,        -9.375,            0.,NA,NA,"",       2.65541,      -2.64853,  -190.992E-03,   8.67363E-03
C:/temp/dataset/test2/6_9.odb,Step-1,Increment      1: Step Time =    1.000,"PART-1-1",           431,           -3.,       -8.4375,            0.,NA,NA,"",       2.93518,      -2.80215,  -873.643E-03,   22.0363E-03
C:/temp/dataset/test2/6_9.odb,Step-1,Increment      1: Step Time =    1.000,"PART-1-1",           432,           -2.,        -9.375,            0.,NA,NA,"",       2.68037,      -2.60873,  -615.573E-03,   16.4034E-03
C:/temp/dataset/test2/6_9.odb,Step-1,Increment      1: Step Time =    1.000,"PART-1-1",           433,           -5.,       -8.4375,            0.,NA,NA,"",       3.07782,      -2.77620,      -1.32879,   35.8019E-03
C:/temp/dataset/test2/6_9.odb,Step-1,Increment      1: Step Time =    1.000,"PART-1-1",           434,           -4.,        -9.375,            0.,NA,NA,"",       2.78680,      -2.58117,      -1.05064,   30.1490E-03
C:/temp/dataset/test2/6_9.odb,Step-1,Increment      1: Step Time =    1.000,"PART-1-1",           435,            3.,      -10.3125,            0.,NA,NA,"",       2.56182,      -2.52275,   445.670E-03,   25.0427E-03
C:/temp/dataset/test2/6_9.odb,Step-1,Increment      1: Step Time =    1.000,"PART-1-1",           436,            4.,        -11.25,            0.,NA,NA,"",       2.43949,      -2.35210,   647.124E-03,   33.9425E-03
C:/temp/dataset/test2/6_9.odb,Step-1,Increment      1: Step Time =    1.000,"PART-1-1",           437,            5.,      -10.3125,            0.,NA,NA,"",       2.73565,      -2.59605,   862.744E-03,   40.1270E-03
C:/temp/dataset/test2/6_9.odb,Step-1,Increment      1: Step Time =    1.000,"PART-1-1",           438,            1.,      -10.3125,            0.,NA,NA,"",       2.46493,      -2.46467,   35.9830E-03,   12.1281E-03
C:/temp/dataset/test2/6_9.odb,Step-1,Increment      1: Step Time =    1.000,"PART-1-1",           439,            2.,        -11.25,            0.,NA,NA,"",       2.30166,      -2.28824,   248.143E-03,   18.7095E-03
C:/temp/dataset/test2/6_9.odb,Step-1,Increment      1: Step Time =    1.000,"PART-1-1",           440,           -1.,      -10.3125,            0.,NA,NA,"",       2.44957,      -2.42095,  -373.297E-03,   11.4127E-03
C:/temp/dataset/test2/6_9.odb,Step-1,Increment      1: Step Time =    1.000,"PART-1-1",           441,            0.,        -11.25,            0.,NA,NA,"",       2.24457,      -2.23975,  -146.949E-03,   8.68257E-03
C:/temp/dataset/test2/6_9.odb,Step-1,Increment      1: Step Time =    1.000,"PART-1-1",           442,           -3.,      -10.3125,            0.,NA,NA,"",       2.51769,      -2.39073,  -789.421E-03,   24.1521E-03
C:/temp/dataset/test2/6_9.odb,Step-1,Increment      1: Step Time =    1.000,"PART-1-1",           443,           -2.,        -11.25,            0.,NA,NA,"",       2.27227,      -2.20587,  -545.274E-03,   17.6821E-03
C:/temp/dataset/test2/6_9.odb,Step-1,Increment      1: Step Time =    1.000,"PART-1-1",           444,           -5.,      -10.3125,            0.,NA,NA,"",       2.66828,      -2.37308,      -1.21993,   39.5546E-03
C:/temp/dataset/test2/6_9.odb,Step-1,Increment      1: Step Time =    1.000,"PART-1-1",           445,           -4.,        -11.25,            0.,NA,NA,"",       2.38505,      -2.18584,  -954.250E-03,   33.1014E-03
C:/temp/dataset/test2/6_9.odb,Step-1,Increment      1: Step Time =    1.000,"PART-1-1",           446,            3.,      -12.1875,            0.,NA,NA,"",       2.16634,      -2.12006,   445.360E-03,   27.3489E-03
C:/temp/dataset/test2/6_9.odb,Step-1,Increment      1: Step Time =    1.000,"PART-1-1",           447,            4.,       -13.125,            0.,NA,NA,"",       2.05887,      -1.96090,   627.524E-03,   37.0370E-03
C:/temp/dataset/test2/6_9.odb,Step-1,Increment      1: Step Time =    1.000,"PART-1-1",           448,            5.,      -12.1875,            0.,NA,NA,"",       2.34400,      -2.19034,   834.694E-03,   43.9683E-03
C:/temp/dataset/test2/6_9.odb,Step-1,Increment      1: Step Time =    1.000,"PART-1-1",           449,            1.,      -12.1875,            0.,NA,NA,"",       2.06698,      -2.06601,   63.3500E-03,   12.7574E-03
C:/temp/dataset/test2/6_9.odb,Step-1,Increment      1: Step Time =    1.000,"PART-1-1",           450,            2.,       -13.125,            0.,NA,NA,"",       1.91795,      -1.90058,   257.500E-03,   20.2174E-03
C:/temp/dataset/test2/6_9.odb,Step-1,Increment      1: Step Time =    1.000,"PART-1-1",           451,           -1.,      -12.1875,            0.,NA,NA,"",       2.05240,      -2.02756,  -318.326E-03,   11.8390E-03
C:/temp/dataset/test2/6_9.odb,Step-1,Increment      1: Step Time =    1.000,"PART-1-1",           452,            0.,       -13.125,            0.,NA,NA,"",       1.85991,      -1.85674,  -108.673E-03,   8.69408E-03
C:/temp/dataset/test2/6_9.odb,Step-1,Increment      1: Step Time =    1.000,"PART-1-1",           453,           -3.,      -12.1875,            0.,NA,NA,"",       2.12513,      -2.00410,  -706.951E-03,   26.2696E-03
C:/temp/dataset/test2/6_9.odb,Step-1,Increment      1: Step Time =    1.000,"PART-1-1",           454,           -2.,       -13.125,            0.,NA,NA,"",       1.89035,      -1.82888,  -478.135E-03,   18.9697E-03
C:/temp/dataset/test2/6_9.odb,Step-1,Increment      1: Step Time =    1.000,"PART-1-1",           455,           -5.,      -12.1875,            0.,NA,NA,"",       2.28303,      -1.99495,      -1.11013,   43.3007E-03
C:/temp/dataset/test2/6_9.odb,Step-1,Increment      1: Step Time =    1.000,"PART-1-1",           456,           -4.,       -13.125,            0.,NA,NA,"",       2.00908,      -1.81649,  -858.352E-03,   36.0476E-03
C:/temp/dataset/test2/6_9.odb,Step-1,Increment      1: Step Time =    1.000,"PART-1-1",           457,            3.,      -14.0625,            0.,NA,NA,"",       1.79782,      -1.74430,   435.406E-03,   29.6695E-03
C:/temp/dataset/test2/6_9.odb,Step-1,Increment      1: Step Time =    1.000,"PART-1-1",           458,            4.,          -15.,            0.,NA,NA,"",       1.70582,      -1.59795,   596.989E-03,   40.1351E-03
C:/temp/dataset/test2/6_9.odb,Step-1,Increment      1: Step Time =    1.000,"PART-1-1",           459,            5.,      -14.0625,            0.,NA,NA,"",       1.97808,      -1.81150,   794.524E-03,   47.8094E-03
C:/temp/dataset/test2/6_9.odb,Step-1,Increment      1: Step Time =    1.000,"PART-1-1",           460,            1.,      -14.0625,            0.,NA,NA,"",       1.69637,      -1.69431,   83.5963E-03,   13.4219E-03
C:/temp/dataset/test2/6_9.odb,Step-1,Increment      1: Step Time =    1.000,"PART-1-1",           461,            2.,          -15.,            0.,NA,NA,"",       1.56267,      -1.54115,   258.420E-03,   21.7494E-03
C:/temp/dataset/test2/6_9.odb,Step-1,Increment      1: Step Time =    1.000,"PART-1-1",           462,           -1.,      -14.0625,            0.,NA,NA,"",       1.68263,      -1.66117,  -267.891E-03,   12.2754E-03
C:/temp/dataset/test2/6_9.odb,Step-1,Increment      1: Step Time =    1.000,"PART-1-1",           463,            0.,          -15.,            0.,NA,NA,"",       1.50386,      -1.50193,  -76.2783E-03,   8.70892E-03
C:/temp/dataset/test2/6_9.odb,Step-1,Increment      1: Step Time =    1.000,"PART-1-1",           464,           -3.,      -14.0625,            0.,NA,NA,"",       1.75977,      -1.64452,  -626.371E-03,   28.3853E-03
C:/temp/dataset/test2/6_9.odb,Step-1,Increment      1: Step Time =    1.000,"PART-1-1",           465,           -2.,          -15.,            0.,NA,NA,"",       1.53695,      -1.48007,  -414.254E-03,   20.2613E-03
C:/temp/dataset/test2/6_9.odb,Step-1,Increment      1: Step Time =    1.000,"PART-1-1",           466,           -5.,      -14.0625,            0.,NA,NA,"",       1.92398,      -1.64398,  -999.519E-03,   47.0406E-03
C:/temp/dataset/test2/6_9.odb,Step-1,Increment      1: Step Time =    1.000,"PART-1-1",           467,           -4.,          -15.,            0.,NA,NA,"",       1.66098,      -1.47535,  -763.021E-03,   38.9868E-03
C:/temp/dataset/test2/6_9.odb,Step-1,Increment      1: Step Time =    1.000,"PART-1-1",           468,            3.,      -15.9375,            0.,NA,NA,"",       1.45860,      -1.39810,   415.740E-03,   32.0010E-03
C:/temp/dataset/test2/6_9.odb,Step-1,Increment      1: Step Time =    1.000,"PART-1-1",           469,            4.,       -16.875,            0.,NA,NA,"",       1.38246,      -1.26594,   555.513E-03,   43.2334E-03
C:/temp/dataset/test2/6_9.odb,Step-1,Increment      1: Step Time =    1.000,"PART-1-1",           470,            5.,      -15.9375,            0.,NA,NA,"",       1.63983,      -1.46227,   742.169E-03,   51.6473E-03
C:/temp/dataset/test2/6_9.odb,Step-1,Increment      1: Step Time =    1.000,"PART-1-1",           471,            1.,      -15.9375,            0.,NA,NA,"",       1.35554,      -1.35209,   96.6572E-03,   14.1200E-03
C:/temp/dataset/test2/6_9.odb,Step-1,Increment      1: Step Time =    1.000,"PART-1-1",           472,            2.,       -16.875,            0.,NA,NA,"",       1.23821,      -1.21253,   250.894E-03,   23.3027E-03
C:/temp/dataset/test2/6_9.odb,Step-1,Increment      1: Step Time =    1.000,"PART-1-1",           473,           -1.,      -15.9375,            0.,NA,NA,"",       1.34265,      -1.32416,  -222.049E-03,   12.7180E-03
C:/temp/dataset/test2/6_9.odb,Step-1,Increment      1: Step Time =    1.000,"PART-1-1",           474,            0.,       -16.875,            0.,NA,NA,"",       1.17883,      -1.17778,  -49.7709E-03,   8.72858E-03
C:/temp/dataset/test2/6_9.odb,Step-1,Increment      1: Step Time =    1.000,"PART-1-1",           475,           -3.,      -15.9375,            0.,NA,NA,"",       1.42382,      -1.31426,  -547.716E-03,   30.4968E-03
C:/temp/dataset/test2/6_9.odb,Step-1,Increment      1: Step Time =    1.000,"PART-1-1",           476,           -2.,       -16.875,            0.,NA,NA,"",       1.21440,      -1.16177,  -353.623E-03,   21.5526E-03
C:/temp/dataset/test2/6_9.odb,Step-1,Increment      1: Step Time =    1.000,"PART-1-1",           477,           -5.,      -15.9375,            0.,NA,NA,"",       1.59285,      -1.32230,  -888.091E-03,   50.7755E-03
C:/temp/dataset/test2/6_9.odb,Step-1,Increment      1: Step Time =    1.000,"PART-1-1",           478,           -4.,       -16.875,            0.,NA,NA,"",       1.34269,      -1.16460,  -668.225E-03,   41.9199E-03
C:/temp/dataset/test2/6_9.odb,Step-1,Increment      1: Step Time =    1.000,"PART-1-1",           479,            3.,      -17.8125,            0.,NA,NA,"",       1.15091,      -1.08410,   386.416E-03,   34.3412E-03
C:/temp/dataset/test2/6_9.odb,Step-1,Increment      1: Step Time =    1.000,"PART-1-1",           480,            4.,        -18.75,            0.,NA,NA,"",       1.09063,  -967.599E-03,   503.224E-03,   46.3248E-03
C:/temp/dataset/test2/6_9.odb,Step-1,Increment      1: Step Time =    1.000,"PART-1-1",           481,            5.,      -17.8125,            0.,NA,NA,"",       1.33088,      -1.14542,   677.691E-03,   55.4731E-03
C:/temp/dataset/test2/6_9.odb,Step-1,Increment      1: Step Time =    1.000,"PART-1-1",           482,            1.,      -17.8125,            0.,NA,NA,"",       1.04690,      -1.04186,   102.579E-03,   14.8527E-03
C:/temp/dataset/test2/6_9.odb,Step-1,Increment      1: Step Time =    1.000,"PART-1-1",           483,            2.,        -18.75,            0.,NA,NA,"",   946.951E-03,  -917.321E-03,   235.030E-03,   24.8786E-03
C:/temp/dataset/test2/6_9.odb,Step-1,Increment      1: Step Time =    1.000,"PART-1-1",           484,           -1.,      -17.8125,            0.,NA,NA,"",       1.03484,      -1.01893,  -180.744E-03,   13.1642E-03
C:/temp/dataset/test2/6_9.odb,Step-1,Increment      1: Step Time =    1.000,"PART-1-1",           485,            0.,        -18.75,            0.,NA,NA,"",   887.222E-03,  -886.746E-03,  -29.0453E-03,   8.75800E-03
C:/temp/dataset/test2/6_9.odb,Step-1,Increment      1: Step Time =    1.000,"PART-1-1",           486,           -3.,      -17.8125,            0.,NA,NA,"",       1.11944,      -1.01557,  -470.912E-03,   32.6034E-03
C:/temp/dataset/test2/6_9.odb,Step-1,Increment      1: Step Time =    1.000,"PART-1-1",           487,           -2.,        -18.75,            0.,NA,NA,"",   924.990E-03,  -876.310E-03,  -296.122E-03,   22.8418E-03
C:/temp/dataset/test2/6_9.odb,Step-1,Increment      1: Step Time =    1.000,"PART-1-1",           488,           -5.,      -17.8125,            0.,NA,NA,"",       1.29109,      -1.03205,  -775.747E-03,   54.5073E-03
C:/temp/dataset/test2/6_9.odb,Step-1,Increment      1: Step Time =    1.000,"PART-1-1",           489,           -4.,        -18.75,            0.,NA,NA,"",       1.05597,  -886.455E-03,  -573.816E-03,   44.8470E-03
C:/temp/dataset/test2/6_9.odb,Step-1,Increment      1: Step Time =    1.000,"PART-1-1",           490,            3.,      -19.6875,            0.,NA,NA,"",   876.853E-03,  -805.004E-03,   347.620E-03,   36.6871E-03
C:/temp/dataset/test2/6_9.odb,Step-1,Increment      1: Step Time =    1.000,"PART-1-1",           491,            4.,       -20.625,            0.,NA,NA,"",   831.842E-03,  -705.697E-03,   440.401E-03,   49.4022E-03
C:/temp/dataset/test2/6_9.odb,Step-1,Increment      1: Step Time =    1.000,"PART-1-1",           492,            5.,      -19.6875,            0.,NA,NA,"",       1.05245,  -863.766E-03,   601.305E-03,   59.2741E-03
C:/temp/dataset/test2/6_9.odb,Step-1,Increment      1: Step Time =    1.000,"PART-1-1",           493,            1.,      -19.6875,            0.,NA,NA,"",   772.872E-03,  -766.174E-03,   101.526E-03,   15.6340E-03
C:/temp/dataset/test2/6_9.odb,Step-1,Increment      1: Step Time =    1.000,"PART-1-1",           494,            2.,       -20.625,            0.,NA,NA,"",   691.146E-03,  -658.133E-03,   211.053E-03,   26.4832E-03
C:/temp/dataset/test2/6_9.odb,Step-1,Increment      1: Step Time =    1.000,"PART-1-1",           495,           -1.,      -19.6875,            0.,NA,NA,"",   761.575E-03,  -747.875E-03,  -143.805E-03,   13.6200E-03
C:/temp/dataset/test2/6_9.odb,Step-1,Increment      1: Step Time =    1.000,"PART-1-1",           496,            0.,       -20.625,            0.,NA,NA,"",   631.434E-03,  -631.281E-03,  -13.8711E-03,   8.81052E-03
C:/temp/dataset/test2/6_9.odb,Step-1,Increment      1: Step Time =    1.000,"PART-1-1",           497,           -3.,      -19.6875,            0.,NA,NA,"",   848.668E-03,  -750.738E-03,  -395.765E-03,   34.7035E-03
C:/temp/dataset/test2/6_9.odb,Step-1,Increment      1: Step Time =    1.000,"PART-1-1",           498,           -2.,       -20.625,            0.,NA,NA,"",   670.984E-03,  -626.020E-03,  -241.492E-03,   24.1321E-03
C:/temp/dataset/test2/6_9.odb,Step-1,Increment      1: Step Time =    1.000,"PART-1-1",           499,           -5.,      -19.6875,            0.,NA,NA,"",       1.01969,  -775.361E-03,  -662.261E-03,   58.2437E-03
C:/temp/dataset/test2/6_9.odb,Step-1,Increment      1: Step Time =    1.000,"PART-1-1",           500,           -4.,       -20.625,            0.,NA,NA,"",   802.202E-03,  -643.102E-03,  -479.528E-03,   47.7763E-03
C:/temp/dataset/test2/6_9.odb,Step-1,Increment      1: Step Time =    1.000,"PART-1-1",           501,            3.,      -21.5625,            0.,NA,NA,"",   638.207E-03,  -563.485E-03,   299.655E-03,   39.0671E-03
C:/temp/dataset/test2/6_9.odb,Step-1,Increment      1: Step Time =    1.000,"PART-1-1",           502,            4.,         -22.5,            0.,NA,NA,"",   606.950E-03,  -483.033E-03,   367.515E-03,   52.4166E-03
C:/temp/dataset/test2/6_9.odb,Step-1,Increment      1: Step Time =    1.000,"PART-1-1",           503,            5.,      -21.5625,            0.,NA,NA,"",   805.081E-03,  -620.140E-03,   513.402E-03,   62.9781E-03
C:/temp/dataset/test2/6_9.odb,Step-1,Increment      1: Step Time =    1.000,"PART-1-1",           504,            1.,      -21.5625,            0.,NA,NA,"",   535.793E-03,  -527.525E-03,   93.7626E-03,   16.4915E-03
C:/temp/dataset/test2/6_9.odb,Step-1,Increment      1: Step Time =    1.000,"PART-1-1",           505,            2.,         -22.5,            0.,NA,NA,"",   472.871E-03,  -437.556E-03,   179.309E-03,   28.1827E-03
C:/temp/dataset/test2/6_9.odb,Step-1,Increment      1: Step Time =    1.000,"PART-1-1",           506,           -1.,      -21.5625,            0.,NA,NA,"",   525.208E-03,  -513.368E-03,  -110.894E-03,   14.1118E-03
C:/temp/dataset/test2/6_9.odb,Step-1,Increment      1: Step Time =    1.000,"PART-1-1",           507,            0.,         -22.5,            0.,NA,NA,"",   413.849E-03,  -413.830E-03,  -3.88691E-03,   8.95137E-03
C:/temp/dataset/test2/6_9.odb,Step-1,Increment      1: Step Time =    1.000,"PART-1-1",           508,           -3.,      -21.5625,            0.,NA,NA,"",   613.309E-03,  -522.023E-03,  -321.931E-03,   36.8272E-03
C:/temp/dataset/test2/6_9.odb,Step-1,Increment      1: Step Time =    1.000,"PART-1-1",           509,           -2.,         -22.5,            0.,NA,NA,"",   454.547E-03,  -413.245E-03,  -189.320E-03,   25.4864E-03
C:/temp/dataset/test2/6_9.odb,Step-1,Increment      1: Step Time =    1.000,"PART-1-1",           510,           -5.,      -21.5625,            0.,NA,NA,"",   779.006E-03,  -554.376E-03,  -547.283E-03,   61.9420E-03
C:/temp/dataset/test2/6_9.odb,Step-1,Increment      1: Step Time =    1.000,"PART-1-1",           511,           -4.,         -22.5,            0.,NA,NA,"",   582.245E-03,  -436.815E-03,  -384.969E-03,   50.6701E-03
C:/temp/dataset/test2/6_9.odb,Step-1,Increment      1: Step Time =    1.000,"PART-1-1",           512,            3.,      -23.4375,            0.,NA,NA,"",   436.197E-03,  -362.247E-03,   242.992E-03,   41.4723E-03
C:/temp/dataset/test2/6_9.odb,Step-1,Increment      1: Step Time =    1.000,"PART-1-1",           513,            4.,       -24.375,            0.,NA,NA,"",   415.458E-03,  -302.105E-03,   285.199E-03,   55.4343E-03
C:/temp/dataset/test2/6_9.odb,Step-1,Increment      1: Step Time =    1.000,"PART-1-1",           514,            5.,      -23.4375,            0.,NA,NA,"",   588.402E-03,  -417.384E-03,   414.737E-03,   66.5746E-03
C:/temp/dataset/test2/6_9.odb,Step-1,Increment      1: Step Time =    1.000,"PART-1-1",           515,            1.,      -23.4375,            0.,NA,NA,"",   337.935E-03,  -328.398E-03,   79.7168E-03,   17.5213E-03
C:/temp/dataset/test2/6_9.odb,Step-1,Increment      1: Step Time =    1.000,"PART-1-1",           516,            2.,       -24.375,            0.,NA,NA,"",   293.603E-03,  -258.047E-03,   140.053E-03,   29.9848E-03
C:/temp/dataset/test2/6_9.odb,Step-1,Increment      1: Step Time =    1.000,"PART-1-1",           517,           -1.,      -23.4375,            0.,NA,NA,"",   328.085E-03,  -317.786E-03,  -81.5551E-03,   14.7393E-03
C:/temp/dataset/test2/6_9.odb,Step-1,Increment      1: Step Time =    1.000,"PART-1-1",           518,            0.,       -24.375,            0.,NA,NA,"",   236.710E-03,  -236.705E-03,   1.45819E-03,   9.23437E-03
C:/temp/dataset/test2/6_9.odb,Step-1,Increment      1: Step Time =    1.000,"PART-1-1",           519,           -3.,      -23.4375,            0.,NA,NA,"",   414.814E-03,  -331.820E-03,  -248.930E-03,   38.9658E-03
C:/temp/dataset/test2/6_9.odb,Step-1,Increment      1: Step Time =    1.000,"PART-1-1",           520,           -2.,       -24.375,            0.,NA,NA,"",   277.507E-03,  -240.330E-03,  -138.750E-03,   26.9225E-03
C:/temp/dataset/test2/6_9.odb,Step-1,Increment      1: Step Time =    1.000,"PART-1-1",           521,           -5.,      -23.4375,            0.,NA,NA,"",   568.428E-03,  -371.281E-03,  -430.419E-03,   65.6396E-03
C:/temp/dataset/test2/6_9.odb,Step-1,Increment      1: Step Time =    1.000,"PART-1-1",           522,           -4.,       -24.375,            0.,NA,NA,"",   395.795E-03,  -269.760E-03,  -289.626E-03,   53.6422E-03
C:/temp/dataset/test2/6_9.odb,Step-1,Increment      1: Step Time =    1.000,"PART-1-1",           523,            3.,      -25.3125,            0.,NA,NA,"",   270.298E-03,  -203.510E-03,   177.890E-03,   44.2935E-03
C:/temp/dataset/test2/6_9.odb,Step-1,Increment      1: Step Time =    1.000,"PART-1-1",           524,            4.,        -26.25,            0.,NA,NA,"",   255.570E-03,  -165.482E-03,   194.761E-03,   58.1978E-03
C:/temp/dataset/test2/6_9.odb,Step-1,Increment      1: Step Time =    1.000,"PART-1-1",           525,            5.,      -25.3125,            0.,NA,NA,"",   400.301E-03,  -257.707E-03,   306.313E-03,   69.2735E-03
C:/temp/dataset/test2/6_9.odb,Step-1,Increment      1: Step Time =    1.000,"PART-1-1",           526,            1.,      -25.3125,            0.,NA,NA,"",   181.201E-03,  -171.098E-03,   59.6623E-03,   18.6289E-03
C:/temp/dataset/test2/6_9.odb,Step-1,Increment      1: Step Time =    1.000,"PART-1-1",           527,            2.,        -26.25,            0.,NA,NA,"",   154.084E-03,  -121.941E-03,   94.1924E-03,   32.1513E-03
C:/temp/dataset/test2/6_9.odb,Step-1,Increment      1: Step Time =    1.000,"PART-1-1",           528,           -1.,      -25.3125,            0.,NA,NA,"",   172.378E-03,  -163.458E-03,  -54.7333E-03,   15.4706E-03
C:/temp/dataset/test2/6_9.odb,Step-1,Increment      1: Step Time =    1.000,"PART-1-1",           529,            0.,        -26.25,            0.,NA,NA,"",   102.682E-03,  -102.642E-03,   2.88993E-03,   9.50580E-03
C:/temp/dataset/test2/6_9.odb,Step-1,Increment      1: Step Time =    1.000,"PART-1-1",           530,           -3.,      -25.3125,            0.,NA,NA,"",   253.117E-03,  -182.251E-03,  -175.650E-03,   41.6002E-03
C:/temp/dataset/test2/6_9.odb,Step-1,Increment      1: Step Time =    1.000,"PART-1-1",           531,           -2.,        -26.25,            0.,NA,NA,"",   141.352E-03,  -109.644E-03,  -89.2116E-03,   28.8928E-03
C:/temp/dataset/test2/6_9.odb,Step-1,Increment      1: Step Time =    1.000,"PART-1-1",           532,           -5.,      -25.3125,            0.,NA,NA,"",   385.858E-03,  -228.004E-03,  -311.288E-03,   68.4102E-03
C:/temp/dataset/test2/6_9.odb,Step-1,Increment      1: Step Time =    1.000,"PART-1-1",           533,           -4.,        -26.25,            0.,NA,NA,"",   241.235E-03,  -144.541E-03,  -193.138E-03,   56.3968E-03
C:/temp/dataset/test2/6_9.odb,Step-1,Increment      1: Step Time =    1.000,"PART-1-1",           534,            3.,      -27.1875,            0.,NA,NA,"",   137.901E-03,  -88.5432E-03,   105.720E-03,   46.2075E-03
C:/temp/dataset/test2/6_9.odb,Step-1,Increment      1: Step Time =    1.000,"PART-1-1",           535,            4.,       -28.125,            0.,NA,NA,"",   116.938E-03,  -67.5109E-03,   95.4821E-03,   61.7643E-03
C:/temp/dataset/test2/6_9.odb,Step-1,Increment      1: Step Time =    1.000,"PART-1-1",           536,            5.,      -27.1875,            0.,NA,NA,"",   239.504E-03,  -142.771E-03,   192.298E-03,   72.6445E-03
C:/temp/dataset/test2/6_9.odb,Step-1,Increment      1: Step Time =    1.000,"PART-1-1",           537,            1.,      -27.1875,            0.,NA,NA,"",   68.8850E-03,  -59.2445E-03,   35.1459E-03,   18.5746E-03
C:/temp/dataset/test2/6_9.odb,Step-1,Increment      1: Step Time =    1.000,"PART-1-1",           538,            2.,       -28.125,            0.,NA,NA,"",   54.0612E-03,  -32.0995E-03,   43.4998E-03,   32.6262E-03
C:/temp/dataset/test2/6_9.odb,Step-1,Increment      1: Step Time =    1.000,"PART-1-1",           539,           -1.,      -27.1875,            0.,NA,NA,"",   62.0585E-03,  -54.1716E-03,  -30.2770E-03,   15.4887E-03
C:/temp/dataset/test2/6_9.odb,Step-1,Increment      1: Step Time =    1.000,"PART-1-1",           540,            0.,       -28.125,            0.,NA,NA,"",   17.9743E-03,  -17.9022E-03,   1.60890E-03,   7.37796E-03
C:/temp/dataset/test2/6_9.odb,Step-1,Increment      1: Step Time =    1.000,"PART-1-1",           541,           -3.,      -27.1875,            0.,NA,NA,"",   126.286E-03,  -74.9190E-03,  -101.662E-03,   43.3187E-03
C:/temp/dataset/test2/6_9.odb,Step-1,Increment      1: Step Time =    1.000,"PART-1-1",           542,           -2.,       -28.125,            0.,NA,NA,"",   47.3456E-03,  -24.9846E-03,  -40.2165E-03,   29.2991E-03
C:/temp/dataset/test2/6_9.odb,Step-1,Increment      1: Step Time =    1.000,"PART-1-1",           543,           -5.,      -27.1875,            0.,NA,NA,"",   229.840E-03,  -126.019E-03,  -192.212E-03,   72.0839E-03
C:/temp/dataset/test2/6_9.odb,Step-1,Increment      1: Step Time =    1.000,"PART-1-1",           544,           -4.,       -28.125,            0.,NA,NA,"",   108.149E-03,  -55.8866E-03,  -92.5902E-03,   59.9712E-03
C:/temp/dataset/test2/6_9.odb,Step-1,Increment      1: Step Time =    1.000,"PART-1-1",           545,            3.,      -29.0625,            0.,NA,NA,"",   33.9585E-03,  -14.1081E-03,   30.8892E-03,   41.2832E-03
C:/temp/dataset/test2/6_9.odb,Step-1,Increment      1: Step Time =    1.000,"PART-1-1",           546,            4.,          -30.,            0.,NA,NA,"",            0.,   315.312E-42,   76.1006E-39,   61.9612E-03
C:/temp/dataset/test2/6_9.odb,Step-1,Increment      1: Step Time =    1.000,"PART-1-1",           547,            5.,      -29.0625,            0.,NA,NA,"",   88.8402E-03,  -58.8750E-03,   66.5306E-03,   80.0288E-03
C:/temp/dataset/test2/6_9.odb,Step-1,Increment      1: Step Time =    1.000,"PART-1-1",           548,            1.,      -29.0625,            0.,NA,NA,"",   10.3785E-03,  -1.34145E-03,   10.2915E-03,   13.2440E-03
C:/temp/dataset/test2/6_9.odb,Step-1,Increment      1: Step Time =    1.000,"PART-1-1",           549,            2.,          -30.,            0.,NA,NA,"",            0.,   2.94271E-39,   37.7031E-39,   23.9772E-03
C:/temp/dataset/test2/6_9.odb,Step-1,Increment      1: Step Time =    1.000,"PART-1-1",           550,           -1.,      -29.0625,            0.,NA,NA,"",   9.09173E-03,   803.500E-06,  -9.05615E-03,   11.6166E-03
C:/temp/dataset/test2/6_9.odb,Step-1,Increment      1: Step Time =    1.000,"PART-1-1",           551,            0.,          -30.,            0.,NA,NA,"",            0.,   6.62150E-39,   174.153E-42,   6.96016E-03
C:/temp/dataset/test2/6_9.odb,Step-1,Increment      1: Step Time =    1.000,"PART-1-1",           552,           -3.,      -29.0625,            0.,NA,NA,"",   30.5473E-03,  -8.32077E-03,  -29.3922E-03,   38.8860E-03
C:/temp/dataset/test2/6_9.odb,Step-1,Increment      1: Step Time =    1.000,"PART-1-1",           553,           -2.,          -30.,            0.,NA,NA,"",            0.,   4.34202E-39,  -36.9846E-39,   23.5323E-03
C:/temp/dataset/test2/6_9.odb,Step-1,Increment      1: Step Time =    1.000,"PART-1-1",           554,           -5.,      -29.0625,            0.,NA,NA,"",   83.9177E-03,  -53.3045E-03,  -64.8136E-03,   77.2121E-03
C:/temp/dataset/test2/6_9.odb,Step-1,Increment      1: Step Time =    1.000,"PART-1-1",           555,           -4.,          -30.,            0.,NA,NA,"",            0.,   2.00184E-39,  -73.7011E-39,   58.5107E-03
