ODB Name,Step,Frame,Part Instance Name,    êﬂì_ÉâÉxÉã,X,Y,Z,Section Name,Material Name,Section Point,   U-Magnitude,          U-U1,          U-U2,       S-Mises
C:/temp/dataset/test2/7_9.odb,Step-1,Increment      2: Step Time =    1.000,"PART-1-1",             1,            5.,           30.,            0.,NA,NA,"",       11.4274,      -11.4273,  -27.2797E-03,   94.6167E-09
C:/temp/dataset/test2/7_9.odb,Step-1,Increment      2: Step Time =    1.000,"PART-1-1",             2,            3.,           30.,            0.,NA,NA,"",       11.3849,      -11.3746,  -483.548E-03,   248.370E-09
C:/temp/dataset/test2/7_9.odb,Step-1,Increment      2: Step Time =    1.000,"PART-1-1",             3,            1.,           30.,            0.,NA,NA,"",       11.3608,      -11.3219,  -939.816E-03,   735.606E-09
C:/temp/dataset/test2/7_9.odb,Step-1,Increment      2: Step Time =    1.000,"PART-1-1",             4,           -1.,           30.,            0.,NA,NA,"",       11.3553,      -11.2691,      -1.39608,   735.078E-09
C:/temp/dataset/test2/7_9.odb,Step-1,Increment      2: Step Time =    1.000,"PART-1-1",             5,           -3.,           30.,            0.,NA,NA,"",       11.3683,      -11.2164,      -1.85235,   247.686E-09
C:/temp/dataset/test2/7_9.odb,Step-1,Increment      2: Step Time =    1.000,"PART-1-1",             6,           -5.,           30.,            0.,NA,NA,"",       11.3998,      -11.1636,      -2.30861,   94.4684E-09
C:/temp/dataset/test2/7_9.odb,Step-1,Increment      2: Step Time =    1.000,"PART-1-1",             7,            5.,        28.125,            0.,NA,NA,"",       10.9996,      -10.9996,   22.1646E-03,   244.953E-09
C:/temp/dataset/test2/7_9.odb,Step-1,Increment      2: Step Time =    1.000,"PART-1-1",             8,            3.,        28.125,            0.,NA,NA,"",       10.9554,      -10.9468,  -434.104E-03,   653.235E-09
C:/temp/dataset/test2/7_9.odb,Step-1,Increment      2: Step Time =    1.000,"PART-1-1",             9,            1.,        28.125,            0.,NA,NA,"",       10.9304,      -10.8941,  -890.373E-03,   519.550E-09
C:/temp/dataset/test2/7_9.odb,Step-1,Increment      2: Step Time =    1.000,"PART-1-1",            10,           -1.,        28.125,            0.,NA,NA,"",       10.9247,      -10.8414,      -1.34664,   519.925E-09
C:/temp/dataset/test2/7_9.odb,Step-1,Increment      2: Step Time =    1.000,"PART-1-1",            11,           -3.,        28.125,            0.,NA,NA,"",       10.9382,      -10.7886,      -1.80291,   652.585E-09
C:/temp/dataset/test2/7_9.odb,Step-1,Increment      2: Step Time =    1.000,"PART-1-1",            12,           -5.,        28.125,            0.,NA,NA,"",       10.9710,      -10.7359,      -2.25917,   245.176E-09
C:/temp/dataset/test2/7_9.odb,Step-1,Increment      2: Step Time =    1.000,"PART-1-1",            13,            5.,         26.25,            0.,NA,NA,"",       10.5721,      -10.5718,   71.6098E-03,   1.01194E-06
C:/temp/dataset/test2/7_9.odb,Step-1,Increment      2: Step Time =    1.000,"PART-1-1",            14,            3.,         26.25,            0.,NA,NA,"",       10.5261,      -10.5191,  -384.660E-03,   841.539E-09
C:/temp/dataset/test2/7_9.odb,Step-1,Increment      2: Step Time =    1.000,"PART-1-1",            15,            1.,         26.25,            0.,NA,NA,"",       10.5001,      -10.4664,  -840.929E-03,   626.018E-09
C:/temp/dataset/test2/7_9.odb,Step-1,Increment      2: Step Time =    1.000,"PART-1-1",            16,           -1.,         26.25,            0.,NA,NA,"",       10.4941,      -10.4136,      -1.29720,   625.724E-09
C:/temp/dataset/test2/7_9.odb,Step-1,Increment      2: Step Time =    1.000,"PART-1-1",            17,           -3.,         26.25,            0.,NA,NA,"",       10.5082,      -10.3609,      -1.75346,   837.923E-09
C:/temp/dataset/test2/7_9.odb,Step-1,Increment      2: Step Time =    1.000,"PART-1-1",            18,           -5.,         26.25,            0.,NA,NA,"",       10.5423,      -10.3081,      -2.20973,   1.00997E-06
C:/temp/dataset/test2/7_9.odb,Step-1,Increment      2: Step Time =    1.000,"PART-1-1",            19,            5.,        24.375,            0.,NA,NA,"",       10.1448,      -10.1441,   121.057E-03,   1.91689E-06
C:/temp/dataset/test2/7_9.odb,Step-1,Increment      2: Step Time =    1.000,"PART-1-1",            20,            3.,        24.375,            0.,NA,NA,"",       10.0969,      -10.0913,  -335.215E-03,   501.004E-09
C:/temp/dataset/test2/7_9.odb,Step-1,Increment      2: Step Time =    1.000,"PART-1-1",            21,            1.,        24.375,            0.,NA,NA,"",       10.0698,      -10.0386,  -791.486E-03,   1.02310E-06
C:/temp/dataset/test2/7_9.odb,Step-1,Increment      2: Step Time =    1.000,"PART-1-1",            22,           -1.,        24.375,            0.,NA,NA,"",       10.0635,      -9.98586,      -1.24775,   1.02328E-06
C:/temp/dataset/test2/7_9.odb,Step-1,Increment      2: Step Time =    1.000,"PART-1-1",            23,           -3.,        24.375,            0.,NA,NA,"",       10.0782,      -9.93312,      -1.70402,   494.925E-09
C:/temp/dataset/test2/7_9.odb,Step-1,Increment      2: Step Time =    1.000,"PART-1-1",            24,           -5.,        24.375,            0.,NA,NA,"",       10.1138,      -9.88039,      -2.16028,   1.90377E-06
C:/temp/dataset/test2/7_9.odb,Step-1,Increment      2: Step Time =    1.000,"PART-1-1",            25,            5.,          22.5,            0.,NA,NA,"",       9.71782,      -9.71633,   170.506E-03,   2.07239E-06
C:/temp/dataset/test2/7_9.odb,Step-1,Increment      2: Step Time =    1.000,"PART-1-1",            26,            3.,          22.5,            0.,NA,NA,"",       9.66781,      -9.66358,  -285.770E-03,   2.67535E-06
C:/temp/dataset/test2/7_9.odb,Step-1,Increment      2: Step Time =    1.000,"PART-1-1",            27,            1.,          22.5,            0.,NA,NA,"",       9.63945,      -9.61085,  -742.039E-03,   4.55075E-06
C:/temp/dataset/test2/7_9.odb,Step-1,Increment      2: Step Time =    1.000,"PART-1-1",            28,           -1.,          22.5,            0.,NA,NA,"",       9.63294,      -9.55812,      -1.19831,   4.55140E-06
C:/temp/dataset/test2/7_9.odb,Step-1,Increment      2: Step Time =    1.000,"PART-1-1",            29,           -3.,          22.5,            0.,NA,NA,"",       9.64831,      -9.50538,      -1.65458,   2.70406E-06
C:/temp/dataset/test2/7_9.odb,Step-1,Increment      2: Step Time =    1.000,"PART-1-1",            30,           -5.,          22.5,            0.,NA,NA,"",       9.68546,      -9.45264,      -2.11083,   2.02008E-06
C:/temp/dataset/test2/7_9.odb,Step-1,Increment      2: Step Time =    1.000,"PART-1-1",            31,            5.,        20.625,            0.,NA,NA,"",       9.29116,      -9.28856,   219.957E-03,   1.63703E-06
C:/temp/dataset/test2/7_9.odb,Step-1,Increment      2: Step Time =    1.000,"PART-1-1",            32,            3.,        20.625,            0.,NA,NA,"",       9.23884,      -9.23582,  -236.321E-03,   11.3806E-06
C:/temp/dataset/test2/7_9.odb,Step-1,Increment      2: Step Time =    1.000,"PART-1-1",            33,            1.,        20.625,            0.,NA,NA,"",       9.20917,      -9.18309,  -692.584E-03,   15.3131E-06
C:/temp/dataset/test2/7_9.odb,Step-1,Increment      2: Step Time =    1.000,"PART-1-1",            34,           -1.,        20.625,            0.,NA,NA,"",       9.20237,      -9.13038,      -1.14886,   15.2643E-06
C:/temp/dataset/test2/7_9.odb,Step-1,Increment      2: Step Time =    1.000,"PART-1-1",            35,           -3.,        20.625,            0.,NA,NA,"",       9.21847,      -9.07765,      -1.60514,   11.3777E-06
C:/temp/dataset/test2/7_9.odb,Step-1,Increment      2: Step Time =    1.000,"PART-1-1",            36,           -5.,        20.625,            0.,NA,NA,"",       9.25734,      -9.02491,      -2.06139,   1.76013E-06
C:/temp/dataset/test2/7_9.odb,Step-1,Increment      2: Step Time =    1.000,"PART-1-1",            37,            5.,         18.75,            0.,NA,NA,"",       8.86486,      -8.86077,   269.398E-03,   16.1125E-06
C:/temp/dataset/test2/7_9.odb,Step-1,Increment      2: Step Time =    1.000,"PART-1-1",            38,            3.,         18.75,            0.,NA,NA,"",       8.81001,      -8.80802,  -186.869E-03,   33.1274E-06
C:/temp/dataset/test2/7_9.odb,Step-1,Increment      2: Step Time =    1.000,"PART-1-1",            39,            1.,         18.75,            0.,NA,NA,"",       8.77892,      -8.75533,  -643.107E-03,   40.5313E-06
C:/temp/dataset/test2/7_9.odb,Step-1,Increment      2: Step Time =    1.000,"PART-1-1",            40,           -1.,         18.75,            0.,NA,NA,"",       8.77182,      -8.70265,      -1.09939,   40.1979E-06
C:/temp/dataset/test2/7_9.odb,Step-1,Increment      2: Step Time =    1.000,"PART-1-1",            41,           -3.,         18.75,            0.,NA,NA,"",       8.78872,      -8.64994,      -1.55570,   32.5957E-06
C:/temp/dataset/test2/7_9.odb,Step-1,Increment      2: Step Time =    1.000,"PART-1-1",            42,           -5.,         18.75,            0.,NA,NA,"",       8.82948,      -8.59719,      -2.01197,   16.1885E-06
C:/temp/dataset/test2/7_9.odb,Step-1,Increment      2: Step Time =    1.000,"PART-1-1",            43,            5.,        16.875,            0.,NA,NA,"",       8.43897,      -8.43295,   318.804E-03,   57.8582E-06
C:/temp/dataset/test2/7_9.odb,Step-1,Increment      2: Step Time =    1.000,"PART-1-1",            44,            3.,        16.875,            0.,NA,NA,"",       8.38133,      -8.38020,  -137.410E-03,   79.0287E-06
C:/temp/dataset/test2/7_9.odb,Step-1,Increment      2: Step Time =    1.000,"PART-1-1",            45,            1.,        16.875,            0.,NA,NA,"",       8.34870,      -8.32757,  -593.582E-03,   90.2149E-06
C:/temp/dataset/test2/7_9.odb,Step-1,Increment      2: Step Time =    1.000,"PART-1-1",            46,           -1.,        16.875,            0.,NA,NA,"",       8.34129,      -8.27495,      -1.04988,   88.2168E-06
C:/temp/dataset/test2/7_9.odb,Step-1,Increment      2: Step Time =    1.000,"PART-1-1",            47,           -3.,        16.875,            0.,NA,NA,"",       8.35909,      -8.22226,      -1.50628,   75.0852E-06
C:/temp/dataset/test2/7_9.odb,Step-1,Increment      2: Step Time =    1.000,"PART-1-1",            48,           -5.,        16.875,            0.,NA,NA,"",       8.40192,      -8.16949,      -1.96259,   56.6665E-06
C:/temp/dataset/test2/7_9.odb,Step-1,Increment      2: Step Time =    1.000,"PART-1-1",            49,            5.,           15.,            0.,NA,NA,"",       8.01357,      -8.00511,   368.094E-03,   160.299E-06
C:/temp/dataset/test2/7_9.odb,Step-1,Increment      2: Step Time =    1.000,"PART-1-1",            50,            3.,           15.,            0.,NA,NA,"",       7.95285,      -7.95236,  -87.9477E-03,   158.949E-06
C:/temp/dataset/test2/7_9.odb,Step-1,Increment      2: Step Time =    1.000,"PART-1-1",            51,            1.,           15.,            0.,NA,NA,"",       7.91853,      -7.89982,  -543.974E-03,   168.494E-06
C:/temp/dataset/test2/7_9.odb,Step-1,Increment      2: Step Time =    1.000,"PART-1-1",            52,           -1.,           15.,            0.,NA,NA,"",       7.91078,      -7.84728,      -1.00031,   160.435E-06
C:/temp/dataset/test2/7_9.odb,Step-1,Increment      2: Step Time =    1.000,"PART-1-1",            53,           -3.,           15.,            0.,NA,NA,"",       7.92957,      -7.79459,      -1.45687,   141.613E-06
C:/temp/dataset/test2/7_9.odb,Step-1,Increment      2: Step Time =    1.000,"PART-1-1",            54,           -5.,           15.,            0.,NA,NA,"",       7.97467,      -7.74174,      -1.91331,   146.823E-06
C:/temp/dataset/test2/7_9.odb,Step-1,Increment      2: Step Time =    1.000,"PART-1-1",            55,            5.,        13.125,            0.,NA,NA,"",       7.58879,      -7.57732,   417.132E-03,   366.536E-06
C:/temp/dataset/test2/7_9.odb,Step-1,Increment      2: Step Time =    1.000,"PART-1-1",            56,            3.,        13.125,            0.,NA,NA,"",       7.52470,      -7.52460,  -38.4832E-03,   268.765E-06
C:/temp/dataset/test2/7_9.odb,Step-1,Increment      2: Step Time =    1.000,"PART-1-1",            57,            1.,        13.125,            0.,NA,NA,"",       7.48849,      -7.47216,  -494.256E-03,   251.326E-06
C:/temp/dataset/test2/7_9.odb,Step-1,Increment      2: Step Time =    1.000,"PART-1-1",            58,           -1.,        13.125,            0.,NA,NA,"",       7.48026,      -7.41961,  -950.640E-03,   224.233E-06
C:/temp/dataset/test2/7_9.odb,Step-1,Increment      2: Step Time =    1.000,"PART-1-1",            59,           -3.,        13.125,            0.,NA,NA,"",       7.50007,      -7.36683,      -1.40745,   202.242E-06
C:/temp/dataset/test2/7_9.odb,Step-1,Increment      2: Step Time =    1.000,"PART-1-1",            60,           -5.,        13.125,            0.,NA,NA,"",       7.54767,      -7.31383,      -1.86420,   305.444E-06
C:/temp/dataset/test2/7_9.odb,Step-1,Increment      2: Step Time =    1.000,"PART-1-1",            61,            5.,         11.25,            0.,NA,NA,"",       7.16509,      -7.14996,   465.463E-03,   784.351E-06
C:/temp/dataset/test2/7_9.odb,Step-1,Increment      2: Step Time =    1.000,"PART-1-1",            62,            3.,         11.25,            0.,NA,NA,"",       7.09730,      -7.09729,   10.9035E-03,   265.032E-06
C:/temp/dataset/test2/7_9.odb,Step-1,Increment      2: Step Time =    1.000,"PART-1-1",            63,            1.,         11.25,            0.,NA,NA,"",       7.05873,      -7.04472,  -444.524E-03,   296.729E-06
C:/temp/dataset/test2/7_9.odb,Step-1,Increment      2: Step Time =    1.000,"PART-1-1",            64,           -1.,         11.25,            0.,NA,NA,"",       7.04957,      -6.99176,  -900.936E-03,   216.733E-06
C:/temp/dataset/test2/7_9.odb,Step-1,Increment      2: Step Time =    1.000,"PART-1-1",            65,           -3.,         11.25,            0.,NA,NA,"",       7.07032,      -6.93868,      -1.35800,   156.337E-06
C:/temp/dataset/test2/7_9.odb,Step-1,Increment      2: Step Time =    1.000,"PART-1-1",            66,           -5.,         11.25,            0.,NA,NA,"",       7.12071,      -6.88543,      -1.81531,   501.911E-06
C:/temp/dataset/test2/7_9.odb,Step-1,Increment      2: Step Time =    1.000,"PART-1-1",            67,            5.,         9.375,            0.,NA,NA,"",       6.74372,      -6.72419,   512.804E-03,   1.78545E-03
C:/temp/dataset/test2/7_9.odb,Step-1,Increment      2: Step Time =    1.000,"PART-1-1",            68,            3.,         9.375,            0.,NA,NA,"",       6.67164,      -6.67137,   60.1789E-03,   1.11826E-03
C:/temp/dataset/test2/7_9.odb,Step-1,Increment      2: Step Time =    1.000,"PART-1-1",            69,            1.,         9.375,            0.,NA,NA,"",       6.62929,      -6.61749,  -395.284E-03,   1.06056E-03
C:/temp/dataset/test2/7_9.odb,Step-1,Increment      2: Step Time =    1.000,"PART-1-1",            70,           -1.,         9.375,            0.,NA,NA,"",       6.61815,      -6.56316,  -851.379E-03,   761.616E-06
C:/temp/dataset/test2/7_9.odb,Step-1,Increment      2: Step Time =    1.000,"PART-1-1",            71,           -3.,         9.375,            0.,NA,NA,"",       6.63969,      -6.50950,      -1.30834,   342.579E-06
C:/temp/dataset/test2/7_9.odb,Step-1,Increment      2: Step Time =    1.000,"PART-1-1",            72,           -5.,         9.375,            0.,NA,NA,"",       6.69330,      -6.45599,      -1.76648,   569.754E-06
C:/temp/dataset/test2/7_9.odb,Step-1,Increment      2: Step Time =    1.000,"PART-1-1",            73,            5.,           7.5,            0.,NA,NA,"",       6.33134,      -6.30686,   556.194E-03,   4.87238E-03
C:/temp/dataset/test2/7_9.odb,Step-1,Increment      2: Step Time =    1.000,"PART-1-1",            74,            3.,           7.5,            0.,NA,NA,"",       6.24917,      -6.24826,   106.754E-03,   5.20349E-03
C:/temp/dataset/test2/7_9.odb,Step-1,Increment      2: Step Time =    1.000,"PART-1-1",            75,            1.,           7.5,            0.,NA,NA,"",       6.19877,      -6.18902,  -347.685E-03,   3.36743E-03
C:/temp/dataset/test2/7_9.odb,Step-1,Increment      2: Step Time =    1.000,"PART-1-1",            76,           -1.,           7.5,            0.,NA,NA,"",       6.18473,      -6.13249,  -802.117E-03,   2.33853E-03
C:/temp/dataset/test2/7_9.odb,Step-1,Increment      2: Step Time =    1.000,"PART-1-1",            77,           -3.,           7.5,            0.,NA,NA,"",       6.20718,      -6.07835,      -1.25806,   1.39686E-03
C:/temp/dataset/test2/7_9.odb,Step-1,Increment      2: Step Time =    1.000,"PART-1-1",            78,           -5.,           7.5,            0.,NA,NA,"",       6.26477,      -6.02486,      -1.71708,   164.877E-06
C:/temp/dataset/test2/7_9.odb,Step-1,Increment      2: Step Time =    1.000,"PART-1-1",            79,            5.,         5.625,            0.,NA,NA,"",       5.91667,      -5.88558,   605.739E-03,   9.55581E-03
C:/temp/dataset/test2/7_9.odb,Step-1,Increment      2: Step Time =    1.000,"PART-1-1",            80,            3.,         5.625,            0.,NA,NA,"",       5.82061,      -5.81868,   149.674E-03,   9.68577E-03
C:/temp/dataset/test2/7_9.odb,Step-1,Increment      2: Step Time =    1.000,"PART-1-1",            81,            1.,         5.625,            0.,NA,NA,"",       5.76321,      -5.75531,  -301.660E-03,   6.49265E-03
C:/temp/dataset/test2/7_9.odb,Step-1,Increment      2: Step Time =    1.000,"PART-1-1",            82,           -1.,         5.625,            0.,NA,NA,"",       5.74760,      -5.69811,  -752.625E-03,   4.66635E-03
C:/temp/dataset/test2/7_9.odb,Step-1,Increment      2: Step Time =    1.000,"PART-1-1",            83,           -3.,         5.625,            0.,NA,NA,"",       5.77198,      -5.64452,      -1.20633,   3.10487E-03
C:/temp/dataset/test2/7_9.odb,Step-1,Increment      2: Step Time =    1.000,"PART-1-1",            84,           -5.,         5.625,            0.,NA,NA,"",       5.83471,      -5.59185,      -1.66586,   1.18286E-03
C:/temp/dataset/test2/7_9.odb,Step-1,Increment      2: Step Time =    1.000,"PART-1-1",            85,            5.,          3.75,            0.,NA,NA,"",       5.47855,      -5.43889,   657.990E-03,   6.69131E-03
C:/temp/dataset/test2/7_9.odb,Step-1,Increment      2: Step Time =    1.000,"PART-1-1",            86,            3.,          3.75,            0.,NA,NA,"",       5.37758,      -5.37408,   194.157E-03,   10.3842E-03
C:/temp/dataset/test2/7_9.odb,Step-1,Increment      2: Step Time =    1.000,"PART-1-1",            87,            1.,          3.75,            0.,NA,NA,"",       5.32086,      -5.31476,  -254.697E-03,   8.76557E-03
C:/temp/dataset/test2/7_9.odb,Step-1,Increment      2: Step Time =    1.000,"PART-1-1",            88,           -1.,          3.75,            0.,NA,NA,"",       5.30659,      -5.26001,  -701.616E-03,   6.93045E-03
C:/temp/dataset/test2/7_9.odb,Step-1,Increment      2: Step Time =    1.000,"PART-1-1",            89,           -3.,          3.75,            0.,NA,NA,"",       5.33444,      -5.20853,      -1.15214,   5.14094E-03
C:/temp/dataset/test2/7_9.odb,Step-1,Increment      2: Step Time =    1.000,"PART-1-1",            90,           -5.,          3.75,            0.,NA,NA,"",       5.40361,      -5.15783,      -1.61114,   3.61216E-03
C:/temp/dataset/test2/7_9.odb,Step-1,Increment      2: Step Time =    1.000,"PART-1-1",            91,            5.,         1.875,            0.,NA,NA,"",       5.03564,      -4.98679,   699.706E-03,   8.89426E-03
C:/temp/dataset/test2/7_9.odb,Step-1,Increment      2: Step Time =    1.000,"PART-1-1",            92,            3.,         1.875,            0.,NA,NA,"",       4.93267,      -4.92681,   240.494E-03,   7.68794E-03
C:/temp/dataset/test2/7_9.odb,Step-1,Increment      2: Step Time =    1.000,"PART-1-1",            93,            1.,         1.875,            0.,NA,NA,"",       4.87661,      -4.87227,  -205.811E-03,   9.19367E-03
C:/temp/dataset/test2/7_9.odb,Step-1,Increment      2: Step Time =    1.000,"PART-1-1",            94,           -1.,         1.875,            0.,NA,NA,"",       4.86447,      -4.82105,  -648.482E-03,   8.39963E-03
C:/temp/dataset/test2/7_9.odb,Step-1,Increment      2: Step Time =    1.000,"PART-1-1",            95,           -3.,         1.875,            0.,NA,NA,"",       4.89662,      -4.77265,      -1.09489,   7.14507E-03
C:/temp/dataset/test2/7_9.odb,Step-1,Increment      2: Step Time =    1.000,"PART-1-1",            96,           -5.,         1.875,            0.,NA,NA,"",       4.97327,      -4.72504,      -1.55160,   6.95690E-03
C:/temp/dataset/test2/7_9.odb,Step-1,Increment      2: Step Time =    1.000,"PART-1-1",            97,            5.,            0.,            0.,NA,NA,"",       4.60611,      -4.54729,   733.787E-03,   12.1894E-03
C:/temp/dataset/test2/7_9.odb,Step-1,Increment      2: Step Time =    1.000,"PART-1-1",            98,            3.,            0.,            0.,NA,NA,"",       4.49603,      -4.48711,   283.089E-03,   8.76079E-03
C:/temp/dataset/test2/7_9.odb,Step-1,Increment      2: Step Time =    1.000,"PART-1-1",            99,            1.,            0.,            0.,NA,NA,"",       4.43655,      -4.43376,  -157.292E-03,   8.95129E-03
C:/temp/dataset/test2/7_9.odb,Step-1,Increment      2: Step Time =    1.000,"PART-1-1",           100,           -1.,            0.,            0.,NA,NA,"",       4.42533,      -4.38528,  -594.051E-03,   9.05801E-03
C:/temp/dataset/test2/7_9.odb,Step-1,Increment      2: Step Time =    1.000,"PART-1-1",           101,           -3.,            0.,            0.,NA,NA,"",       4.46177,      -4.34014,      -1.03469,   9.01374E-03
C:/temp/dataset/test2/7_9.odb,Step-1,Increment      2: Step Time =    1.000,"PART-1-1",           102,           -5.,            0.,            0.,NA,NA,"",       4.54644,      -4.29649,      -1.48671,   10.7958E-03
C:/temp/dataset/test2/7_9.odb,Step-1,Increment      2: Step Time =    1.000,"PART-1-1",           103,            5.,        -1.875,            0.,NA,NA,"",       4.18493,      -4.11532,   760.110E-03,   15.6094E-03
C:/temp/dataset/test2/7_9.odb,Step-1,Increment      2: Step Time =    1.000,"PART-1-1",           104,            3.,        -1.875,            0.,NA,NA,"",       4.06748,      -4.05490,   319.713E-03,   10.7043E-03
C:/temp/dataset/test2/7_9.odb,Step-1,Increment      2: Step Time =    1.000,"PART-1-1",           105,            1.,        -1.875,            0.,NA,NA,"",       4.00394,      -4.00239,  -111.382E-03,   9.03748E-03
C:/temp/dataset/test2/7_9.odb,Step-1,Increment      2: Step Time =    1.000,"PART-1-1",           106,           -1.,        -1.875,            0.,NA,NA,"",       3.99274,      -3.95611,  -539.599E-03,   9.33605E-03
C:/temp/dataset/test2/7_9.odb,Step-1,Increment      2: Step Time =    1.000,"PART-1-1",           107,           -3.,        -1.875,            0.,NA,NA,"",       4.03326,      -3.91435,  -972.158E-03,   10.8553E-03
C:/temp/dataset/test2/7_9.odb,Step-1,Increment      2: Step Time =    1.000,"PART-1-1",           108,           -5.,        -1.875,            0.,NA,NA,"",       4.12615,      -3.87531,      -1.41672,   14.7684E-03
C:/temp/dataset/test2/7_9.odb,Step-1,Increment      2: Step Time =    1.000,"PART-1-1",           109,            5.,         -3.75,            0.,NA,NA,"",       3.77332,      -3.69215,   778.416E-03,   19.2205E-03
C:/temp/dataset/test2/7_9.odb,Step-1,Increment      2: Step Time =    1.000,"PART-1-1",           110,            3.,         -3.75,            0.,NA,NA,"",       3.64858,      -3.63174,   350.215E-03,   12.8059E-03
C:/temp/dataset/test2/7_9.odb,Step-1,Increment      2: Step Time =    1.000,"PART-1-1",           111,            1.,         -3.75,            0.,NA,NA,"",       3.58094,      -3.58028,  -69.0766E-03,   9.35800E-03
C:/temp/dataset/test2/7_9.odb,Step-1,Increment      2: Step Time =    1.000,"PART-1-1",           112,           -1.,         -3.75,            0.,NA,NA,"",       3.56955,      -3.53630,  -486.082E-03,   9.54174E-03
C:/temp/dataset/test2/7_9.odb,Step-1,Increment      2: Step Time =    1.000,"PART-1-1",           113,           -3.,         -3.75,            0.,NA,NA,"",       3.61411,      -3.49820,  -907.939E-03,   12.7620E-03
C:/temp/dataset/test2/7_9.odb,Step-1,Increment      2: Step Time =    1.000,"PART-1-1",           114,           -5.,         -3.75,            0.,NA,NA,"",       3.71527,      -3.46434,      -1.34223,   18.7036E-03
C:/temp/dataset/test2/7_9.odb,Step-1,Increment      2: Step Time =    1.000,"PART-1-1",           115,            5.,        -5.625,            0.,NA,NA,"",       3.37303,      -3.27970,   787.964E-03,   22.9407E-03
C:/temp/dataset/test2/7_9.odb,Step-1,Increment      2: Step Time =    1.000,"PART-1-1",           116,            3.,        -5.625,            0.,NA,NA,"",       3.24133,      -3.21966,   374.187E-03,   14.9549E-03
C:/temp/dataset/test2/7_9.odb,Step-1,Increment      2: Step Time =    1.000,"PART-1-1",           117,            1.,        -5.625,            0.,NA,NA,"",       3.16979,      -3.16964,  -30.9031E-03,   9.77148E-03
C:/temp/dataset/test2/7_9.odb,Step-1,Increment      2: Step Time =    1.000,"PART-1-1",           118,           -1.,        -5.625,            0.,NA,NA,"",       3.15830,      -3.12832,  -434.120E-03,   9.78418E-03
C:/temp/dataset/test2/7_9.odb,Step-1,Increment      2: Step Time =    1.000,"PART-1-1",           119,           -3.,        -5.625,            0.,NA,NA,"",       3.20696,      -3.09429,  -842.609E-03,   14.7478E-03
C:/temp/dataset/test2/7_9.odb,Step-1,Increment      2: Step Time =    1.000,"PART-1-1",           120,           -5.,        -5.625,            0.,NA,NA,"",       3.31636,      -3.06609,      -1.26386,   22.5683E-03
C:/temp/dataset/test2/7_9.odb,Step-1,Increment      2: Step Time =    1.000,"PART-1-1",           121,            5.,          -7.5,            0.,NA,NA,"",       2.98623,      -2.88033,   788.204E-03,   26.7254E-03
C:/temp/dataset/test2/7_9.odb,Step-1,Increment      2: Step Time =    1.000,"PART-1-1",           122,            3.,          -7.5,            0.,NA,NA,"",       2.84802,      -2.82102,   391.211E-03,   17.1448E-03
C:/temp/dataset/test2/7_9.odb,Step-1,Increment      2: Step Time =    1.000,"PART-1-1",           123,            1.,          -7.5,            0.,NA,NA,"",       2.77282,      -2.77281,   2.73331E-03,   10.2303E-03
C:/temp/dataset/test2/7_9.odb,Step-1,Increment      2: Step Time =    1.000,"PART-1-1",           124,           -1.,          -7.5,            0.,NA,NA,"",       2.76140,      -2.73455,  -384.156E-03,   10.0808E-03
C:/temp/dataset/test2/7_9.odb,Step-1,Increment      2: Step Time =    1.000,"PART-1-1",           125,           -3.,          -7.5,            0.,NA,NA,"",       2.81427,      -2.70499,  -776.634E-03,   16.7938E-03
C:/temp/dataset/test2/7_9.odb,Step-1,Increment      2: Step Time =    1.000,"PART-1-1",           126,           -5.,          -7.5,            0.,NA,NA,"",       2.93178,      -2.68288,      -1.18215,   26.3797E-03
C:/temp/dataset/test2/7_9.odb,Step-1,Increment      2: Step Time =    1.000,"PART-1-1",           127,            5.,        -9.375,            0.,NA,NA,"",       2.61515,      -2.49654,   778.658E-03,   30.5417E-03
C:/temp/dataset/test2/7_9.odb,Step-1,Increment      2: Step Time =    1.000,"PART-1-1",           128,            3.,        -9.375,            0.,NA,NA,"",       2.47101,      -2.43828,   400.880E-03,   19.3691E-03
C:/temp/dataset/test2/7_9.odb,Step-1,Increment      2: Step Time =    1.000,"PART-1-1",           129,            1.,        -9.375,            0.,NA,NA,"",       2.39241,      -2.39221,   31.4711E-03,   10.7257E-03
C:/temp/dataset/test2/7_9.odb,Step-1,Increment      2: Step Time =    1.000,"PART-1-1",           130,           -1.,        -9.375,            0.,NA,NA,"",       2.38123,      -2.35732,  -336.551E-03,   10.4240E-03
C:/temp/dataset/test2/7_9.odb,Step-1,Increment      2: Step Time =    1.000,"PART-1-1",           131,           -3.,        -9.375,            0.,NA,NA,"",       2.43837,      -2.33259,  -710.398E-03,   18.8769E-03
C:/temp/dataset/test2/7_9.odb,Step-1,Increment      2: Step Time =    1.000,"PART-1-1",           132,           -5.,        -9.375,            0.,NA,NA,"",       2.56375,      -2.31695,      -1.09753,   30.1610E-03
C:/temp/dataset/test2/7_9.odb,Step-1,Increment      2: Step Time =    1.000,"PART-1-1",           133,            5.,        -11.25,            0.,NA,NA,"",       2.26200,      -2.13088,   758.950E-03,   34.3731E-03
C:/temp/dataset/test2/7_9.odb,Step-1,Increment      2: Step Time =    1.000,"PART-1-1",           134,            3.,        -11.25,            0.,NA,NA,"",       2.11270,      -2.07394,   402.847E-03,   21.6228E-03
C:/temp/dataset/test2/7_9.odb,Step-1,Increment      2: Step Time =    1.000,"PART-1-1",           135,            1.,        -11.25,            0.,NA,NA,"",       2.03100,      -2.03025,   54.9955E-03,   11.2592E-03
C:/temp/dataset/test2/7_9.odb,Step-1,Increment      2: Step Time =    1.000,"PART-1-1",           136,           -1.,        -11.25,            0.,NA,NA,"",       2.02017,      -1.99901,  -291.610E-03,   10.8018E-03
C:/temp/dataset/test2/7_9.odb,Step-1,Increment      2: Step Time =    1.000,"PART-1-1",           137,           -3.,        -11.25,            0.,NA,NA,"",       2.08157,      -1.97938,  -644.213E-03,   20.9806E-03
C:/temp/dataset/test2/7_9.odb,Step-1,Increment      2: Step Time =    1.000,"PART-1-1",           138,           -5.,        -11.25,            0.,NA,NA,"",       2.21440,      -1.97048,      -1.01032,   33.9265E-03
C:/temp/dataset/test2/7_9.odb,Step-1,Increment      2: Step Time =    1.000,"PART-1-1",           139,            5.,       -13.125,            0.,NA,NA,"",       1.92895,      -1.78597,   728.794E-03,   38.2112E-03
C:/temp/dataset/test2/7_9.odb,Step-1,Increment      2: Step Time =    1.000,"PART-1-1",           140,            3.,       -13.125,            0.,NA,NA,"",       1.77545,      -1.73053,   396.837E-03,   23.9008E-03
C:/temp/dataset/test2/7_9.odb,Step-1,Increment      2: Step Time =    1.000,"PART-1-1",           141,            1.,       -13.125,            0.,NA,NA,"",       1.69097,      -1.68940,   73.0513E-03,   11.8321E-03
C:/temp/dataset/test2/7_9.odb,Step-1,Increment      2: Step Time =    1.000,"PART-1-1",           142,           -1.,       -13.125,            0.,NA,NA,"",       1.68059,      -1.66196,  -249.576E-03,   11.2043E-03
C:/temp/dataset/test2/7_9.odb,Step-1,Increment      2: Step Time =    1.000,"PART-1-1",           143,           -3.,       -13.125,            0.,NA,NA,"",       1.74615,      -1.64760,  -578.318E-03,   23.0948E-03
C:/temp/dataset/test2/7_9.odb,Step-1,Increment      2: Step Time =    1.000,"PART-1-1",           144,           -5.,       -13.125,            0.,NA,NA,"",       1.88574,      -1.64568,  -920.729E-03,   37.6835E-03
C:/temp/dataset/test2/7_9.odb,Step-1,Increment      2: Step Time =    1.000,"PART-1-1",           145,            5.,          -15.,            0.,NA,NA,"",       1.61803,      -1.46447,   687.997E-03,   42.0515E-03
C:/temp/dataset/test2/7_9.odb,Step-1,Increment      2: Step Time =    1.000,"PART-1-1",           146,            3.,          -15.,            0.,NA,NA,"",       1.46161,      -1.41063,   382.662E-03,   26.1984E-03
C:/temp/dataset/test2/7_9.odb,Step-1,Increment      2: Step Time =    1.000,"PART-1-1",           147,            1.,          -15.,            0.,NA,NA,"",       1.37477,      -1.37211,   85.4576E-03,   12.4439E-03
C:/temp/dataset/test2/7_9.odb,Step-1,Increment      2: Step Time =    1.000,"PART-1-1",           148,           -1.,          -15.,            0.,NA,NA,"",       1.36489,      -1.34854,  -210.621E-03,   11.6238E-03
C:/temp/dataset/test2/7_9.odb,Step-1,Increment      2: Step Time =    1.000,"PART-1-1",           149,           -3.,          -15.,            0.,NA,NA,"",       1.43436,      -1.33954,  -512.871E-03,   25.2133E-03
C:/temp/dataset/test2/7_9.odb,Step-1,Increment      2: Step Time =    1.000,"PART-1-1",           150,           -5.,          -15.,            0.,NA,NA,"",       1.57966,      -1.34470,  -828.908E-03,   41.4350E-03
C:/temp/dataset/test2/7_9.odb,Step-1,Increment      2: Step Time =    1.000,"PART-1-1",           151,            5.,       -16.875,            0.,NA,NA,"",       1.33109,      -1.16906,   636.467E-03,   45.8903E-03
C:/temp/dataset/test2/7_9.odb,Step-1,Increment      2: Step Time =    1.000,"PART-1-1",           152,            3.,       -16.875,            0.,NA,NA,"",       1.17347,      -1.11681,   360.225E-03,   28.5110E-03
C:/temp/dataset/test2/7_9.odb,Step-1,Increment      2: Step Time =    1.000,"PART-1-1",           153,            1.,       -16.875,            0.,NA,NA,"",       1.08479,      -1.08087,   92.1194E-03,   13.0942E-03
C:/temp/dataset/test2/7_9.odb,Step-1,Increment      2: Step Time =    1.000,"PART-1-1",           154,           -1.,       -16.875,            0.,NA,NA,"",       1.07543,      -1.06112,  -174.829E-03,   12.0549E-03
C:/temp/dataset/test2/7_9.odb,Step-1,Increment      2: Step Time =    1.000,"PART-1-1",           155,           -3.,       -16.875,            0.,NA,NA,"",       1.14841,      -1.05745,  -447.940E-03,   27.3322E-03
C:/temp/dataset/test2/7_9.odb,Step-1,Increment      2: Step Time =    1.000,"PART-1-1",           156,           -5.,       -16.875,            0.,NA,NA,"",       1.29784,      -1.06972,  -734.897E-03,   45.1846E-03
C:/temp/dataset/test2/7_9.odb,Step-1,Increment      2: Step Time =    1.000,"PART-1-1",           157,            5.,        -18.75,            0.,NA,NA,"",       1.06967,  -902.473E-03,   574.230E-03,   49.7160E-03
C:/temp/dataset/test2/7_9.odb,Step-1,Increment      2: Step Time =    1.000,"PART-1-1",           158,            3.,        -18.75,            0.,NA,NA,"",   913.224E-03,  -851.695E-03,   329.536E-03,   30.8371E-03
C:/temp/dataset/test2/7_9.odb,Step-1,Increment      2: Step Time =    1.000,"PART-1-1",           159,            1.,        -18.75,            0.,NA,NA,"",   823.448E-03,  -818.175E-03,   93.0373E-03,   13.7846E-03
C:/temp/dataset/test2/7_9.odb,Step-1,Increment      2: Step Time =    1.000,"PART-1-1",           160,           -1.,        -18.75,            0.,NA,NA,"",   814.590E-03,  -802.083E-03,  -142.192E-03,   12.4942E-03
C:/temp/dataset/test2/7_9.odb,Step-1,Increment      2: Step Time =    1.000,"PART-1-1",           161,           -3.,        -18.75,            0.,NA,NA,"",   890.423E-03,  -803.606E-03,  -383.499E-03,   29.4507E-03
C:/temp/dataset/test2/7_9.odb,Step-1,Increment      2: Step Time =    1.000,"PART-1-1",           162,           -5.,        -18.75,            0.,NA,NA,"",       1.04164,  -822.891E-03,  -638.643E-03,   48.9332E-03
C:/temp/dataset/test2/7_9.odb,Step-1,Increment      2: Step Time =    1.000,"PART-1-1",           163,            5.,       -20.625,            0.,NA,NA,"",   834.843E-03,  -667.469E-03,   501.446E-03,   53.5220E-03
C:/temp/dataset/test2/7_9.odb,Step-1,Increment      2: Step Time =    1.000,"PART-1-1",           164,            3.,       -20.625,            0.,NA,NA,"",   682.905E-03,  -617.932E-03,   290.722E-03,   33.1706E-03
C:/temp/dataset/test2/7_9.odb,Step-1,Increment      2: Step Time =    1.000,"PART-1-1",           165,            1.,       -20.625,            0.,NA,NA,"",   593.142E-03,  -586.531E-03,   88.3073E-03,   14.5383E-03
C:/temp/dataset/test2/7_9.odb,Step-1,Increment      2: Step Time =    1.000,"PART-1-1",           166,           -1.,       -20.625,            0.,NA,NA,"",   584.751E-03,  -573.810E-03,  -112.589E-03,   12.9560E-03
C:/temp/dataset/test2/7_9.odb,Step-1,Increment      2: Step Time =    1.000,"PART-1-1",           167,           -3.,       -20.625,            0.,NA,NA,"",   662.383E-03,  -580.283E-03,  -319.410E-03,   31.5654E-03
C:/temp/dataset/test2/7_9.odb,Step-1,Increment      2: Step Time =    1.000,"PART-1-1",           168,           -5.,       -20.625,            0.,NA,NA,"",   811.948E-03,  -606.374E-03,  -539.972E-03,   52.6944E-03
C:/temp/dataset/test2/7_9.odb,Step-1,Increment      2: Step Time =    1.000,"PART-1-1",           169,            5.,         -22.5,            0.,NA,NA,"",   626.913E-03,  -466.779E-03,   418.493E-03,   57.1830E-03
C:/temp/dataset/test2/7_9.odb,Step-1,Increment      2: Step Time =    1.000,"PART-1-1",           170,            3.,         -22.5,            0.,NA,NA,"",   484.098E-03,  -418.129E-03,   243.965E-03,   35.5657E-03
C:/temp/dataset/test2/7_9.odb,Step-1,Increment      2: Step Time =    1.000,"PART-1-1",           171,            1.,         -22.5,            0.,NA,NA,"",   396.142E-03,  -388.365E-03,   78.1070E-03,   15.3752E-03
C:/temp/dataset/test2/7_9.odb,Step-1,Increment      2: Step Time =    1.000,"PART-1-1",           172,           -1.,         -22.5,            0.,NA,NA,"",   388.209E-03,  -378.625E-03,  -85.7283E-03,   13.4635E-03
C:/temp/dataset/test2/7_9.odb,Step-1,Increment      2: Step Time =    1.000,"PART-1-1",           173,           -3.,         -22.5,            0.,NA,NA,"",   465.963E-03,  -389.760E-03,  -255.359E-03,   33.7226E-03
C:/temp/dataset/test2/7_9.odb,Step-1,Increment      2: Step Time =    1.000,"PART-1-1",           174,           -5.,         -22.5,            0.,NA,NA,"",   608.897E-03,  -422.292E-03,  -438.663E-03,   56.3796E-03
C:/temp/dataset/test2/7_9.odb,Step-1,Increment      2: Step Time =    1.000,"PART-1-1",           175,            5.,       -24.375,            0.,NA,NA,"",   445.221E-03,  -303.217E-03,   326.008E-03,   60.8069E-03
C:/temp/dataset/test2/7_9.odb,Step-1,Increment      2: Step Time =    1.000,"PART-1-1",           176,            3.,       -24.375,            0.,NA,NA,"",   317.803E-03,  -254.932E-03,   189.760E-03,   37.9863E-03
C:/temp/dataset/test2/7_9.odb,Step-1,Increment      2: Step Time =    1.000,"PART-1-1",           177,            1.,       -24.375,            0.,NA,NA,"",   234.745E-03,  -226.194E-03,   62.7839E-03,   16.5529E-03
C:/temp/dataset/test2/7_9.odb,Step-1,Increment      2: Step Time =    1.000,"PART-1-1",           178,           -1.,       -24.375,            0.,NA,NA,"",   227.385E-03,  -218.979E-03,  -61.2541E-03,   14.2869E-03
C:/temp/dataset/test2/7_9.odb,Step-1,Increment      2: Step Time =    1.000,"PART-1-1",           179,           -3.,       -24.375,            0.,NA,NA,"",   302.424E-03,  -234.455E-03,  -191.028E-03,   35.9121E-03
C:/temp/dataset/test2/7_9.odb,Step-1,Increment      2: Step Time =    1.000,"PART-1-1",           180,           -5.,       -24.375,            0.,NA,NA,"",   431.672E-03,  -273.052E-03,  -334.341E-03,   60.1182E-03
C:/temp/dataset/test2/7_9.odb,Step-1,Increment      2: Step Time =    1.000,"PART-1-1",           181,            5.,        -26.25,            0.,NA,NA,"",   287.307E-03,  -177.881E-03,   225.618E-03,   62.7821E-03
C:/temp/dataset/test2/7_9.odb,Step-1,Increment      2: Step Time =    1.000,"PART-1-1",           182,            3.,        -26.25,            0.,NA,NA,"",   182.119E-03,  -129.984E-03,   127.559E-03,   41.4505E-03
C:/temp/dataset/test2/7_9.odb,Step-1,Increment      2: Step Time =    1.000,"PART-1-1",           183,            1.,        -26.25,            0.,NA,NA,"",   110.830E-03,  -102.384E-03,   42.4348E-03,   17.2867E-03
C:/temp/dataset/test2/7_9.odb,Step-1,Increment      2: Step Time =    1.000,"PART-1-1",           184,           -1.,        -26.25,            0.,NA,NA,"",   104.450E-03,  -97.2799E-03,  -38.0315E-03,   14.6330E-03
C:/temp/dataset/test2/7_9.odb,Step-1,Increment      2: Step Time =    1.000,"PART-1-1",           185,           -3.,        -26.25,            0.,NA,NA,"",   170.343E-03,  -116.120E-03,  -124.631E-03,   39.2599E-03
C:/temp/dataset/test2/7_9.odb,Step-1,Increment      2: Step Time =    1.000,"PART-1-1",           186,           -5.,        -26.25,            0.,NA,NA,"",   277.784E-03,  -159.274E-03,  -227.586E-03,   62.2064E-03
C:/temp/dataset/test2/7_9.odb,Step-1,Increment      2: Step Time =    1.000,"PART-1-1",           187,            5.,       -28.125,            0.,NA,NA,"",   149.798E-03,  -89.1015E-03,   120.418E-03,   69.3841E-03
C:/temp/dataset/test2/7_9.odb,Step-1,Increment      2: Step Time =    1.000,"PART-1-1",           188,            3.,       -28.125,            0.,NA,NA,"",   77.1574E-03,  -45.5993E-03,   62.2412E-03,   43.7253E-03
C:/temp/dataset/test2/7_9.odb,Step-1,Increment      2: Step Time =    1.000,"PART-1-1",           189,            1.,       -28.125,            0.,NA,NA,"",   29.5902E-03,  -22.0307E-03,   19.7541E-03,   16.0638E-03
C:/temp/dataset/test2/7_9.odb,Step-1,Increment      2: Step Time =    1.000,"PART-1-1",           190,           -1.,       -28.125,            0.,NA,NA,"",   25.5769E-03,  -18.9963E-03,  -17.1265E-03,   13.7513E-03
C:/temp/dataset/test2/7_9.odb,Step-1,Increment      2: Step Time =    1.000,"PART-1-1",           191,           -3.,       -28.125,            0.,NA,NA,"",   70.7092E-03,  -37.5903E-03,  -59.8896E-03,   41.2359E-03
C:/temp/dataset/test2/7_9.odb,Step-1,Increment      2: Step Time =    1.000,"PART-1-1",           192,           -5.,       -28.125,            0.,NA,NA,"",   143.630E-03,  -79.9529E-03,  -119.320E-03,   69.5016E-03
C:/temp/dataset/test2/7_9.odb,Step-1,Increment      2: Step Time =    1.000,"PART-1-1",           193,            5.,          -30.,            0.,NA,NA,"",            0.,  -310.892E-42,   348.357E-42,   87.4525E-03
C:/temp/dataset/test2/7_9.odb,Step-1,Increment      2: Step Time =    1.000,"PART-1-1",           194,            3.,          -30.,            0.,NA,NA,"",            0.,  -17.8131E-39,   37.3241E-39,   30.1443E-03
C:/temp/dataset/test2/7_9.odb,Step-1,Increment      2: Step Time =    1.000,"PART-1-1",           195,            1.,          -30.,            0.,NA,NA,"",            0.,  -2.68388E-39,   10.7347E-39,   12.1815E-03
C:/temp/dataset/test2/7_9.odb,Step-1,Increment      2: Step Time =    1.000,"PART-1-1",           196,           -1.,          -30.,            0.,NA,NA,"",            0.,   10.1591E-39,  -12.8763E-39,   12.1080E-03
C:/temp/dataset/test2/7_9.odb,Step-1,Increment      2: Step Time =    1.000,"PART-1-1",           197,           -3.,          -30.,            0.,NA,NA,"",            0.,   416.584E-42,  -35.9961E-39,   28.8948E-03
C:/temp/dataset/test2/7_9.odb,Step-1,Increment      2: Step Time =    1.000,"PART-1-1",           198,           -5.,          -30.,            0.,NA,NA,"",            0.,   617.859E-42,   970.813E-42,   83.8231E-03
C:/temp/dataset/test2/7_9.odb,Step-1,Increment      2: Step Time =    1.000,"PART-1-1",           199,            4.,           30.,            0.,NA,NA,"",       11.4038,      -11.4010,  -255.414E-03,   93.4908E-09
C:/temp/dataset/test2/7_9.odb,Step-1,Increment      2: Step Time =    1.000,"PART-1-1",           200,            3.,       29.0625,            0.,NA,NA,"",       11.1701,      -11.1607,  -458.826E-03,   395.654E-09
C:/temp/dataset/test2/7_9.odb,Step-1,Increment      2: Step Time =    1.000,"PART-1-1",           201,            4.,        28.125,            0.,NA,NA,"",       10.9751,      -10.9732,  -205.970E-03,   387.600E-09
C:/temp/dataset/test2/7_9.odb,Step-1,Increment      2: Step Time =    1.000,"PART-1-1",           202,            5.,       29.0625,            0.,NA,NA,"",       11.2135,      -11.2135,  -2.55757E-03,   99.3171E-09
C:/temp/dataset/test2/7_9.odb,Step-1,Increment      2: Step Time =    1.000,"PART-1-1",           203,            2.,           30.,            0.,NA,NA,"",       11.3705,      -11.3482,  -711.682E-03,   504.320E-09
C:/temp/dataset/test2/7_9.odb,Step-1,Increment      2: Step Time =    1.000,"PART-1-1",           204,            1.,       29.0625,            0.,NA,NA,"",       11.1456,      -11.1080,  -915.095E-03,   570.555E-09
C:/temp/dataset/test2/7_9.odb,Step-1,Increment      2: Step Time =    1.000,"PART-1-1",           205,            2.,        28.125,            0.,NA,NA,"",       10.9405,      -10.9205,  -662.239E-03,   556.307E-09
C:/temp/dataset/test2/7_9.odb,Step-1,Increment      2: Step Time =    1.000,"PART-1-1",           206,            0.,           30.,            0.,NA,NA,"",       11.3557,      -11.2955,      -1.16795,   752.173E-09
C:/temp/dataset/test2/7_9.odb,Step-1,Increment      2: Step Time =    1.000,"PART-1-1",           207,           -1.,       29.0625,            0.,NA,NA,"",       11.1400,      -11.0552,      -1.37136,   570.225E-09
C:/temp/dataset/test2/7_9.odb,Step-1,Increment      2: Step Time =    1.000,"PART-1-1",           208,            0.,        28.125,            0.,NA,NA,"",       10.9251,      -10.8677,      -1.11851,   405.619E-09
C:/temp/dataset/test2/7_9.odb,Step-1,Increment      2: Step Time =    1.000,"PART-1-1",           209,           -2.,           30.,            0.,NA,NA,"",       11.3595,      -11.2427,      -1.62422,   503.622E-09
C:/temp/dataset/test2/7_9.odb,Step-1,Increment      2: Step Time =    1.000,"PART-1-1",           210,           -3.,       29.0625,            0.,NA,NA,"",       11.1533,      -11.0025,      -1.82763,   395.288E-09
C:/temp/dataset/test2/7_9.odb,Step-1,Increment      2: Step Time =    1.000,"PART-1-1",           211,           -2.,        28.125,            0.,NA,NA,"",       10.9290,      -10.8150,      -1.57477,   556.345E-09
C:/temp/dataset/test2/7_9.odb,Step-1,Increment      2: Step Time =    1.000,"PART-1-1",           212,           -4.,           30.,            0.,NA,NA,"",       11.3818,      -11.1900,      -2.08048,   93.0510E-09
C:/temp/dataset/test2/7_9.odb,Step-1,Increment      2: Step Time =    1.000,"PART-1-1",           213,           -5.,       29.0625,            0.,NA,NA,"",       11.1854,      -10.9498,      -2.28389,   99.4881E-09
C:/temp/dataset/test2/7_9.odb,Step-1,Increment      2: Step Time =    1.000,"PART-1-1",           214,           -4.,        28.125,            0.,NA,NA,"",       10.9522,      -10.7623,      -2.03104,   387.065E-09
C:/temp/dataset/test2/7_9.odb,Step-1,Increment      2: Step Time =    1.000,"PART-1-1",           215,            3.,       27.1875,            0.,NA,NA,"",       10.7408,      -10.7330,  -409.382E-03,   719.940E-09
C:/temp/dataset/test2/7_9.odb,Step-1,Increment      2: Step Time =    1.000,"PART-1-1",           216,            4.,         26.25,            0.,NA,NA,"",       10.5466,      -10.5455,  -156.525E-03,   726.891E-09
C:/temp/dataset/test2/7_9.odb,Step-1,Increment      2: Step Time =    1.000,"PART-1-1",           217,            5.,       27.1875,            0.,NA,NA,"",       10.7858,      -10.7857,   46.8871E-03,   621.865E-09
C:/temp/dataset/test2/7_9.odb,Step-1,Increment      2: Step Time =    1.000,"PART-1-1",           218,            1.,       27.1875,            0.,NA,NA,"",       10.7153,      -10.6802,  -865.651E-03,   529.952E-09
C:/temp/dataset/test2/7_9.odb,Step-1,Increment      2: Step Time =    1.000,"PART-1-1",           219,            2.,         26.25,            0.,NA,NA,"",       10.5106,      -10.4927,  -612.795E-03,   633.531E-09
C:/temp/dataset/test2/7_9.odb,Step-1,Increment      2: Step Time =    1.000,"PART-1-1",           220,           -1.,       27.1875,            0.,NA,NA,"",       10.7094,      -10.6275,      -1.32192,   529.902E-09
C:/temp/dataset/test2/7_9.odb,Step-1,Increment      2: Step Time =    1.000,"PART-1-1",           221,            0.,         26.25,            0.,NA,NA,"",       10.4946,      -10.4400,      -1.06906,   516.697E-09
C:/temp/dataset/test2/7_9.odb,Step-1,Increment      2: Step Time =    1.000,"PART-1-1",           222,           -3.,       27.1875,            0.,NA,NA,"",       10.7232,      -10.5747,      -1.77818,   717.736E-09
C:/temp/dataset/test2/7_9.odb,Step-1,Increment      2: Step Time =    1.000,"PART-1-1",           223,           -2.,         26.25,            0.,NA,NA,"",       10.4986,      -10.3872,      -1.52533,   632.512E-09
C:/temp/dataset/test2/7_9.odb,Step-1,Increment      2: Step Time =    1.000,"PART-1-1",           224,           -5.,       27.1875,            0.,NA,NA,"",       10.7566,      -10.5220,      -2.23445,   620.873E-09
C:/temp/dataset/test2/7_9.odb,Step-1,Increment      2: Step Time =    1.000,"PART-1-1",           225,           -4.,         26.25,            0.,NA,NA,"",       10.5228,      -10.3345,      -1.98159,   725.004E-09
C:/temp/dataset/test2/7_9.odb,Step-1,Increment      2: Step Time =    1.000,"PART-1-1",           226,            3.,       25.3125,            0.,NA,NA,"",       10.3115,      -10.3052,  -359.938E-03,   585.803E-09
C:/temp/dataset/test2/7_9.odb,Step-1,Increment      2: Step Time =    1.000,"PART-1-1",           227,            4.,        24.375,            0.,NA,NA,"",       10.1183,      -10.1177,  -107.079E-03,   949.173E-09
C:/temp/dataset/test2/7_9.odb,Step-1,Increment      2: Step Time =    1.000,"PART-1-1",           228,            5.,       25.3125,            0.,NA,NA,"",       10.3584,      -10.3580,   96.3331E-03,   1.42761E-06
C:/temp/dataset/test2/7_9.odb,Step-1,Increment      2: Step Time =    1.000,"PART-1-1",           229,            1.,       25.3125,            0.,NA,NA,"",       10.2849,      -10.2525,  -816.208E-03,   639.518E-09
C:/temp/dataset/test2/7_9.odb,Step-1,Increment      2: Step Time =    1.000,"PART-1-1",           230,            2.,        24.375,            0.,NA,NA,"",       10.0807,      -10.0650,  -563.351E-03,   660.908E-09
C:/temp/dataset/test2/7_9.odb,Step-1,Increment      2: Step Time =    1.000,"PART-1-1",           231,           -1.,       25.3125,            0.,NA,NA,"",       10.2788,      -10.1997,      -1.27247,   639.408E-09
C:/temp/dataset/test2/7_9.odb,Step-1,Increment      2: Step Time =    1.000,"PART-1-1",           232,            0.,        24.375,            0.,NA,NA,"",       10.0640,      -10.0122,      -1.01962,   1.01213E-06
C:/temp/dataset/test2/7_9.odb,Step-1,Increment      2: Step Time =    1.000,"PART-1-1",           233,           -3.,       25.3125,            0.,NA,NA,"",       10.2932,      -10.1470,      -1.72874,   579.752E-09
C:/temp/dataset/test2/7_9.odb,Step-1,Increment      2: Step Time =    1.000,"PART-1-1",           234,           -2.,        24.375,            0.,NA,NA,"",       10.0683,      -9.95949,      -1.47589,   664.001E-09
C:/temp/dataset/test2/7_9.odb,Step-1,Increment      2: Step Time =    1.000,"PART-1-1",           235,           -5.,       25.3125,            0.,NA,NA,"",       10.3280,      -10.0943,      -2.18500,   1.41990E-06
C:/temp/dataset/test2/7_9.odb,Step-1,Increment      2: Step Time =    1.000,"PART-1-1",           236,           -4.,        24.375,            0.,NA,NA,"",       10.0934,      -9.90676,      -1.93215,   943.777E-09
C:/temp/dataset/test2/7_9.odb,Step-1,Increment      2: Step Time =    1.000,"PART-1-1",           237,            3.,       23.4375,            0.,NA,NA,"",       9.88234,      -9.87746,  -310.493E-03,   1.32714E-06
C:/temp/dataset/test2/7_9.odb,Step-1,Increment      2: Step Time =    1.000,"PART-1-1",           238,            4.,          22.5,            0.,NA,NA,"",       9.69013,      -9.68995,  -57.6325E-03,   1.29065E-06
C:/temp/dataset/test2/7_9.odb,Step-1,Increment      2: Step Time =    1.000,"PART-1-1",           239,            5.,       23.4375,            0.,NA,NA,"",       9.93127,      -9.93020,   145.782E-03,   1.89326E-06
C:/temp/dataset/test2/7_9.odb,Step-1,Increment      2: Step Time =    1.000,"PART-1-1",           240,            1.,       23.4375,            0.,NA,NA,"",       9.85460,      -9.82473,  -766.763E-03,   2.68967E-06
C:/temp/dataset/test2/7_9.odb,Step-1,Increment      2: Step Time =    1.000,"PART-1-1",           241,            2.,          22.5,            0.,NA,NA,"",       9.65091,      -9.63722,  -513.905E-03,   3.47530E-06
C:/temp/dataset/test2/7_9.odb,Step-1,Increment      2: Step Time =    1.000,"PART-1-1",           242,           -1.,       23.4375,            0.,NA,NA,"",       9.84823,      -9.77199,      -1.22303,   2.69103E-06
C:/temp/dataset/test2/7_9.odb,Step-1,Increment      2: Step Time =    1.000,"PART-1-1",           243,            0.,          22.5,            0.,NA,NA,"",       9.63346,      -9.58448,  -970.174E-03,   4.28581E-06
C:/temp/dataset/test2/7_9.odb,Step-1,Increment      2: Step Time =    1.000,"PART-1-1",           244,           -3.,       23.4375,            0.,NA,NA,"",       9.86326,      -9.71925,      -1.67930,   1.34244E-06
C:/temp/dataset/test2/7_9.odb,Step-1,Increment      2: Step Time =    1.000,"PART-1-1",           245,           -2.,          22.5,            0.,NA,NA,"",       9.63789,      -9.53175,      -1.42644,   3.48931E-06
C:/temp/dataset/test2/7_9.odb,Step-1,Increment      2: Step Time =    1.000,"PART-1-1",           246,           -5.,       23.4375,            0.,NA,NA,"",       9.89960,      -9.66651,      -2.13556,   1.86512E-06
C:/temp/dataset/test2/7_9.odb,Step-1,Increment      2: Step Time =    1.000,"PART-1-1",           247,           -4.,          22.5,            0.,NA,NA,"",       9.66418,      -9.47901,      -1.88271,   1.31151E-06
C:/temp/dataset/test2/7_9.odb,Step-1,Increment      2: Step Time =    1.000,"PART-1-1",           248,            3.,       21.5625,            0.,NA,NA,"",       9.45331,      -9.44970,  -261.046E-03,   7.07213E-06
C:/temp/dataset/test2/7_9.odb,Step-1,Increment      2: Step Time =    1.000,"PART-1-1",           249,            4.,        20.625,            0.,NA,NA,"",       9.26219,      -9.26218,  -8.18576E-03,   5.83025E-06
C:/temp/dataset/test2/7_9.odb,Step-1,Increment      2: Step Time =    1.000,"PART-1-1",           250,            5.,       21.5625,            0.,NA,NA,"",       9.50445,      -9.50244,   195.232E-03,   392.106E-09
C:/temp/dataset/test2/7_9.odb,Step-1,Increment      2: Step Time =    1.000,"PART-1-1",           251,            1.,       21.5625,            0.,NA,NA,"",       9.42431,      -9.39697,  -717.314E-03,   9.92236E-06
C:/temp/dataset/test2/7_9.odb,Step-1,Increment      2: Step Time =    1.000,"PART-1-1",           252,            2.,        20.625,            0.,NA,NA,"",       9.22115,      -9.20945,  -464.453E-03,   12.3653E-06
C:/temp/dataset/test2/7_9.odb,Step-1,Increment      2: Step Time =    1.000,"PART-1-1",           253,           -1.,       21.5625,            0.,NA,NA,"",       9.41765,      -9.34425,      -1.17358,   9.89535E-06
C:/temp/dataset/test2/7_9.odb,Step-1,Increment      2: Step Time =    1.000,"PART-1-1",           254,            0.,        20.625,            0.,NA,NA,"",       9.20291,      -9.15673,  -920.719E-03,   14.0978E-06
C:/temp/dataset/test2/7_9.odb,Step-1,Increment      2: Step Time =    1.000,"PART-1-1",           255,           -3.,       21.5625,            0.,NA,NA,"",       9.43338,      -9.29151,      -1.62985,   7.05639E-06
C:/temp/dataset/test2/7_9.odb,Step-1,Increment      2: Step Time =    1.000,"PART-1-1",           256,           -2.,        20.625,            0.,NA,NA,"",       9.20756,      -9.10402,      -1.37700,   12.3480E-06
C:/temp/dataset/test2/7_9.odb,Step-1,Increment      2: Step Time =    1.000,"PART-1-1",           257,           -5.,       21.5625,            0.,NA,NA,"",       9.47137,      -9.23878,      -2.08611,   384.625E-09
C:/temp/dataset/test2/7_9.odb,Step-1,Increment      2: Step Time =    1.000,"PART-1-1",           258,           -4.,        20.625,            0.,NA,NA,"",       9.23507,      -9.05128,      -1.83327,   5.84492E-06
C:/temp/dataset/test2/7_9.odb,Step-1,Increment      2: Step Time =    1.000,"PART-1-1",           259,            3.,       19.6875,            0.,NA,NA,"",       9.02440,      -9.02192,  -211.596E-03,   22.2242E-06
C:/temp/dataset/test2/7_9.odb,Step-1,Increment      2: Step Time =    1.000,"PART-1-1",           260,            4.,         18.75,            0.,NA,NA,"",       8.83449,      -8.83439,   41.2558E-03,   20.0903E-06
C:/temp/dataset/test2/7_9.odb,Step-1,Increment      2: Step Time =    1.000,"PART-1-1",           261,            5.,       19.6875,            0.,NA,NA,"",       9.07796,      -9.07467,   244.680E-03,   9.13586E-06
C:/temp/dataset/test2/7_9.odb,Step-1,Increment      2: Step Time =    1.000,"PART-1-1",           262,            1.,       19.6875,            0.,NA,NA,"",       8.99404,      -8.96921,  -667.850E-03,   27.8334E-06
C:/temp/dataset/test2/7_9.odb,Step-1,Increment      2: Step Time =    1.000,"PART-1-1",           263,            2.,         18.75,            0.,NA,NA,"",       8.79147,      -8.78167,  -414.986E-03,   33.4862E-06
C:/temp/dataset/test2/7_9.odb,Step-1,Increment      2: Step Time =    1.000,"PART-1-1",           264,           -1.,       19.6875,            0.,NA,NA,"",       8.98709,      -8.91651,      -1.12413,   27.6210E-06
C:/temp/dataset/test2/7_9.odb,Step-1,Increment      2: Step Time =    1.000,"PART-1-1",           265,            0.,         18.75,            0.,NA,NA,"",       8.77236,      -8.72899,  -871.242E-03,   36.9406E-06
C:/temp/dataset/test2/7_9.odb,Step-1,Increment      2: Step Time =    1.000,"PART-1-1",           266,           -3.,       19.6875,            0.,NA,NA,"",       9.00358,      -8.86379,      -1.58042,   21.9098E-06
C:/temp/dataset/test2/7_9.odb,Step-1,Increment      2: Step Time =    1.000,"PART-1-1",           267,           -2.,         18.75,            0.,NA,NA,"",       8.77728,      -8.67630,      -1.32755,   33.0447E-06
C:/temp/dataset/test2/7_9.odb,Step-1,Increment      2: Step Time =    1.000,"PART-1-1",           268,           -5.,       19.6875,            0.,NA,NA,"",       9.04338,      -8.81105,      -2.03668,   9.13643E-06
C:/temp/dataset/test2/7_9.odb,Step-1,Increment      2: Step Time =    1.000,"PART-1-1",           269,           -4.,         18.75,            0.,NA,NA,"",       8.80614,      -8.62357,      -1.78384,   19.8935E-06
C:/temp/dataset/test2/7_9.odb,Step-1,Increment      2: Step Time =    1.000,"PART-1-1",           270,            3.,       17.8125,            0.,NA,NA,"",       8.59565,      -8.59412,  -162.140E-03,   55.8583E-06
C:/temp/dataset/test2/7_9.odb,Step-1,Increment      2: Step Time =    1.000,"PART-1-1",           271,            4.,        16.875,            0.,NA,NA,"",       8.40705,      -8.40656,   90.6756E-03,   54.5947E-06
C:/temp/dataset/test2/7_9.odb,Step-1,Increment      2: Step Time =    1.000,"PART-1-1",           272,            5.,       17.8125,            0.,NA,NA,"",       8.65186,      -8.64686,   294.110E-03,   37.4009E-06
C:/temp/dataset/test2/7_9.odb,Step-1,Increment      2: Step Time =    1.000,"PART-1-1",           273,            1.,       17.8125,            0.,NA,NA,"",       8.56380,      -8.54145,  -618.354E-03,   64.8830E-06
C:/temp/dataset/test2/7_9.odb,Step-1,Increment      2: Step Time =    1.000,"PART-1-1",           274,            2.,        16.875,            0.,NA,NA,"",       8.36187,      -8.35387,  -365.488E-03,   75.2786E-06
C:/temp/dataset/test2/7_9.odb,Step-1,Increment      2: Step Time =    1.000,"PART-1-1",           275,           -1.,       17.8125,            0.,NA,NA,"",       8.55655,      -8.48880,      -1.07464,   63.6300E-06
C:/temp/dataset/test2/7_9.odb,Step-1,Increment      2: Step Time =    1.000,"PART-1-1",           276,            0.,        16.875,            0.,NA,NA,"",       8.34184,      -8.30126,  -821.716E-03,   81.1453E-06
C:/temp/dataset/test2/7_9.odb,Step-1,Increment      2: Step Time =    1.000,"PART-1-1",           277,           -3.,       17.8125,            0.,NA,NA,"",       8.57389,      -8.43609,      -1.53099,   53.3975E-06
C:/temp/dataset/test2/7_9.odb,Step-1,Increment      2: Step Time =    1.000,"PART-1-1",           278,           -2.,        16.875,            0.,NA,NA,"",       8.34705,      -8.24862,      -1.27808,   72.8618E-06
C:/temp/dataset/test2/7_9.odb,Step-1,Increment      2: Step Time =    1.000,"PART-1-1",           279,           -5.,       17.8125,            0.,NA,NA,"",       8.61566,      -8.38334,      -1.98727,   36.5433E-06
C:/temp/dataset/test2/7_9.odb,Step-1,Increment      2: Step Time =    1.000,"PART-1-1",           280,           -4.,        16.875,            0.,NA,NA,"",       8.37739,      -8.19587,      -1.73446,   52.4998E-06
C:/temp/dataset/test2/7_9.odb,Step-1,Increment      2: Step Time =    1.000,"PART-1-1",           281,            3.,       15.9375,            0.,NA,NA,"",       8.16706,      -8.16628,  -112.679E-03,   117.039E-06
C:/temp/dataset/test2/7_9.odb,Step-1,Increment      2: Step Time =    1.000,"PART-1-1",           282,            4.,           15.,            0.,NA,NA,"",       7.97993,      -7.97870,   140.037E-03,   124.926E-06
C:/temp/dataset/test2/7_9.odb,Step-1,Increment      2: Step Time =    1.000,"PART-1-1",           283,            5.,       15.9375,            0.,NA,NA,"",       8.22620,      -8.21903,   343.472E-03,   109.718E-06
C:/temp/dataset/test2/7_9.odb,Step-1,Increment      2: Step Time =    1.000,"PART-1-1",           284,            1.,       15.9375,            0.,NA,NA,"",       8.13360,      -8.11369,  -568.792E-03,   127.510E-06
C:/temp/dataset/test2/7_9.odb,Step-1,Increment      2: Step Time =    1.000,"PART-1-1",           285,            2.,           15.,            0.,NA,NA,"",       7.93237,      -7.92608,  -315.934E-03,   143.739E-06
C:/temp/dataset/test2/7_9.odb,Step-1,Increment      2: Step Time =    1.000,"PART-1-1",           286,           -1.,       15.9375,            0.,NA,NA,"",       8.12603,      -8.06111,      -1.02511,   122.286E-06
C:/temp/dataset/test2/7_9.odb,Step-1,Increment      2: Step Time =    1.000,"PART-1-1",           287,            0.,           15.,            0.,NA,NA,"",       7.91133,      -7.87357,  -772.101E-03,   149.057E-06
C:/temp/dataset/test2/7_9.odb,Step-1,Increment      2: Step Time =    1.000,"PART-1-1",           288,           -3.,       15.9375,            0.,NA,NA,"",       8.14432,      -8.00842,      -1.48157,   107.067E-06
C:/temp/dataset/test2/7_9.odb,Step-1,Increment      2: Step Time =    1.000,"PART-1-1",           289,           -2.,           15.,            0.,NA,NA,"",       7.91687,      -7.82096,      -1.22858,   132.094E-06
C:/temp/dataset/test2/7_9.odb,Step-1,Increment      2: Step Time =    1.000,"PART-1-1",           290,           -5.,       15.9375,            0.,NA,NA,"",       8.18825,      -7.95562,      -1.93793,   101.087E-06
C:/temp/dataset/test2/7_9.odb,Step-1,Increment      2: Step Time =    1.000,"PART-1-1",           291,           -4.,           15.,            0.,NA,NA,"",       7.94885,      -7.76817,      -1.68513,   114.495E-06
C:/temp/dataset/test2/7_9.odb,Step-1,Increment      2: Step Time =    1.000,"PART-1-1",           292,            3.,       14.0625,            0.,NA,NA,"",       7.73871,      -7.73845,  -63.2152E-03,   209.319E-06
C:/temp/dataset/test2/7_9.odb,Step-1,Increment      2: Step Time =    1.000,"PART-1-1",           293,            4.,        13.125,            0.,NA,NA,"",       7.55327,      -7.55090,   189.249E-03,   244.043E-06
C:/temp/dataset/test2/7_9.odb,Step-1,Increment      2: Step Time =    1.000,"PART-1-1",           294,            5.,       14.0625,            0.,NA,NA,"",       7.80109,      -7.79120,   392.660E-03,   259.928E-06
C:/temp/dataset/test2/7_9.odb,Step-1,Increment      2: Step Time =    1.000,"PART-1-1",           295,            1.,       14.0625,            0.,NA,NA,"",       7.70349,      -7.68597,  -519.129E-03,   202.911E-06
C:/temp/dataset/test2/7_9.odb,Step-1,Increment      2: Step Time =    1.000,"PART-1-1",           296,            2.,        13.125,            0.,NA,NA,"",       7.50310,      -7.49837,  -266.305E-03,   213.182E-06
C:/temp/dataset/test2/7_9.odb,Step-1,Increment      2: Step Time =    1.000,"PART-1-1",           297,           -1.,       14.0625,            0.,NA,NA,"",       7.69553,      -7.63345,  -975.485E-03,   186.562E-06
C:/temp/dataset/test2/7_9.odb,Step-1,Increment      2: Step Time =    1.000,"PART-1-1",           298,            0.,        13.125,            0.,NA,NA,"",       7.48087,      -7.44591,  -722.375E-03,   214.098E-06
C:/temp/dataset/test2/7_9.odb,Step-1,Increment      2: Step Time =    1.000,"PART-1-1",           299,           -3.,       14.0625,            0.,NA,NA,"",       7.71483,      -7.58073,      -1.43216,   169.350E-06
C:/temp/dataset/test2/7_9.odb,Step-1,Increment      2: Step Time =    1.000,"PART-1-1",           300,           -2.,        13.125,            0.,NA,NA,"",       7.48667,      -7.39325,      -1.17902,   180.353E-06
C:/temp/dataset/test2/7_9.odb,Step-1,Increment      2: Step Time =    1.000,"PART-1-1",           301,           -5.,       14.0625,            0.,NA,NA,"",       7.76114,      -7.52782,      -1.88873,   223.804E-06
C:/temp/dataset/test2/7_9.odb,Step-1,Increment      2: Step Time =    1.000,"PART-1-1",           302,           -4.,        13.125,            0.,NA,NA,"",       7.52043,      -7.34035,      -1.63589,   206.097E-06
C:/temp/dataset/test2/7_9.odb,Step-1,Increment      2: Step Time =    1.000,"PART-1-1",           303,            3.,       12.1875,            0.,NA,NA,"",       7.31085,      -7.31084,  -13.7843E-03,   254.468E-06
C:/temp/dataset/test2/7_9.odb,Step-1,Increment      2: Step Time =    1.000,"PART-1-1",           304,            4.,         11.25,            0.,NA,NA,"",       7.12750,      -7.12352,   238.210E-03,   387.976E-06
C:/temp/dataset/test2/7_9.odb,Step-1,Increment      2: Step Time =    1.000,"PART-1-1",           305,            5.,       12.1875,            0.,NA,NA,"",       7.37675,      -7.36353,   441.405E-03,   563.156E-06
C:/temp/dataset/test2/7_9.odb,Step-1,Increment      2: Step Time =    1.000,"PART-1-1",           306,            1.,       12.1875,            0.,NA,NA,"",       7.27357,      -7.25841,  -469.375E-03,   239.095E-06
C:/temp/dataset/test2/7_9.odb,Step-1,Increment      2: Step Time =    1.000,"PART-1-1",           307,            2.,         11.25,            0.,NA,NA,"",       7.07436,      -7.07105,  -216.647E-03,   218.549E-06
C:/temp/dataset/test2/7_9.odb,Step-1,Increment      2: Step Time =    1.000,"PART-1-1",           308,           -1.,       12.1875,            0.,NA,NA,"",       7.26496,      -7.20574,  -925.782E-03,   193.404E-06
C:/temp/dataset/test2/7_9.odb,Step-1,Increment      2: Step Time =    1.000,"PART-1-1",           309,            0.,         11.25,            0.,NA,NA,"",       7.05044,      -7.01828,  -672.632E-03,   247.588E-06
C:/temp/dataset/test2/7_9.odb,Step-1,Increment      2: Step Time =    1.000,"PART-1-1",           310,           -3.,       12.1875,            0.,NA,NA,"",       7.28526,      -7.15284,      -1.38274,   172.419E-06
C:/temp/dataset/test2/7_9.odb,Step-1,Increment      2: Step Time =    1.000,"PART-1-1",           311,           -2.,         11.25,            0.,NA,NA,"",       7.05621,      -6.96524,      -1.12940,   149.137E-06
C:/temp/dataset/test2/7_9.odb,Step-1,Increment      2: Step Time =    1.000,"PART-1-1",           312,           -5.,       12.1875,            0.,NA,NA,"",       7.33421,      -7.09972,      -1.83974,   399.121E-06
C:/temp/dataset/test2/7_9.odb,Step-1,Increment      2: Step Time =    1.000,"PART-1-1",           313,           -4.,         11.25,            0.,NA,NA,"",       7.09187,      -6.91209,      -1.58669,   288.737E-06
C:/temp/dataset/test2/7_9.odb,Step-1,Increment      2: Step Time =    1.000,"PART-1-1",           314,            3.,       10.3125,            0.,NA,NA,"",       6.88416,      -6.88407,   35.5922E-03,   314.440E-06
C:/temp/dataset/test2/7_9.odb,Step-1,Increment      2: Step Time =    1.000,"PART-1-1",           315,            4.,         9.375,            0.,NA,NA,"",       6.70389,      -6.69777,   286.551E-03,   683.720E-06
C:/temp/dataset/test2/7_9.odb,Step-1,Increment      2: Step Time =    1.000,"PART-1-1",           316,            5.,       10.3125,            0.,NA,NA,"",       6.95391,      -6.93668,   489.296E-03,   927.049E-06
C:/temp/dataset/test2/7_9.odb,Step-1,Increment      2: Step Time =    1.000,"PART-1-1",           317,            1.,       10.3125,            0.,NA,NA,"",       6.84400,      -6.83111,  -419.759E-03,   553.530E-06
C:/temp/dataset/test2/7_9.odb,Step-1,Increment      2: Step Time =    1.000,"PART-1-1",           318,            2.,         9.375,            0.,NA,NA,"",       6.64677,      -6.64466,  -167.401E-03,   977.762E-06
C:/temp/dataset/test2/7_9.odb,Step-1,Increment      2: Step Time =    1.000,"PART-1-1",           319,           -1.,       10.3125,            0.,NA,NA,"",       6.83403,      -6.77763,  -876.124E-03,   408.704E-06
C:/temp/dataset/test2/7_9.odb,Step-1,Increment      2: Step Time =    1.000,"PART-1-1",           320,            0.,         9.375,            0.,NA,NA,"",       6.61969,      -6.59028,  -623.258E-03,   846.955E-06
C:/temp/dataset/test2/7_9.odb,Step-1,Increment      2: Step Time =    1.000,"PART-1-1",           321,           -3.,       10.3125,            0.,NA,NA,"",       6.85518,      -6.72428,      -1.33323,   136.809E-06
C:/temp/dataset/test2/7_9.odb,Step-1,Increment      2: Step Time =    1.000,"PART-1-1",           322,           -2.,         9.375,            0.,NA,NA,"",       6.62485,      -6.53627,      -1.07972,   538.051E-06
C:/temp/dataset/test2/7_9.odb,Step-1,Increment      2: Step Time =    1.000,"PART-1-1",           323,           -5.,       10.3125,            0.,NA,NA,"",       6.90710,      -6.67088,      -1.79093,   531.414E-06
C:/temp/dataset/test2/7_9.odb,Step-1,Increment      2: Step Time =    1.000,"PART-1-1",           324,           -4.,         9.375,            0.,NA,NA,"",       6.66258,      -6.48280,      -1.53731,   312.374E-06
C:/temp/dataset/test2/7_9.odb,Step-1,Increment      2: Step Time =    1.000,"PART-1-1",           325,            3.,        8.4375,            0.,NA,NA,"",       6.46058,      -6.46004,   84.0127E-03,   2.64179E-03
C:/temp/dataset/test2/7_9.odb,Step-1,Increment      2: Step Time =    1.000,"PART-1-1",           326,            4.,           7.5,            0.,NA,NA,"",       6.28727,      -6.27838,   334.282E-03,   5.19726E-03
C:/temp/dataset/test2/7_9.odb,Step-1,Increment      2: Step Time =    1.000,"PART-1-1",           327,            5.,        8.4375,            0.,NA,NA,"",       6.53443,      -6.51249,   535.098E-03,   1.20856E-03
C:/temp/dataset/test2/7_9.odb,Step-1,Increment      2: Step Time =    1.000,"PART-1-1",           328,            1.,        8.4375,            0.,NA,NA,"",       6.41438,      -6.40363,  -371.219E-03,   2.09642E-03
C:/temp/dataset/test2/7_9.odb,Step-1,Increment      2: Step Time =    1.000,"PART-1-1",           329,            2.,           7.5,            0.,NA,NA,"",       6.21957,      -6.21841,  -120.439E-03,   3.85611E-03
C:/temp/dataset/test2/7_9.odb,Step-1,Increment      2: Step Time =    1.000,"PART-1-1",           330,           -1.,        8.4375,            0.,NA,NA,"",       6.40181,      -6.34821,  -826.735E-03,   1.49822E-03
C:/temp/dataset/test2/7_9.odb,Step-1,Increment      2: Step Time =    1.000,"PART-1-1",           331,            0.,           7.5,            0.,NA,NA,"",       6.18715,      -6.16039,  -574.837E-03,   2.70124E-03
C:/temp/dataset/test2/7_9.odb,Step-1,Increment      2: Step Time =    1.000,"PART-1-1",           332,           -3.,        8.4375,            0.,NA,NA,"",       6.42373,      -6.29424,      -1.28334,   850.321E-06
C:/temp/dataset/test2/7_9.odb,Step-1,Increment      2: Step Time =    1.000,"PART-1-1",           333,           -2.,           7.5,            0.,NA,NA,"",       6.19145,      -6.10521,      -1.02980,   1.79221E-03
C:/temp/dataset/test2/7_9.odb,Step-1,Increment      2: Step Time =    1.000,"PART-1-1",           334,           -5.,        8.4375,            0.,NA,NA,"",       6.47922,      -6.24066,      -1.74194,   364.233E-06
C:/temp/dataset/test2/7_9.odb,Step-1,Increment      2: Step Time =    1.000,"PART-1-1",           335,           -4.,           7.5,            0.,NA,NA,"",       6.23173,      -6.05168,      -1.48716,   682.515E-06
C:/temp/dataset/test2/7_9.odb,Step-1,Increment      2: Step Time =    1.000,"PART-1-1",           336,            3.,        6.5625,            0.,NA,NA,"",       6.03626,      -6.03489,   128.595E-03,   7.14797E-03
C:/temp/dataset/test2/7_9.odb,Step-1,Increment      2: Step Time =    1.000,"PART-1-1",           337,            4.,         5.625,            0.,NA,NA,"",       5.86422,      -5.85211,   376.774E-03,   9.06774E-03
C:/temp/dataset/test2/7_9.odb,Step-1,Increment      2: Step Time =    1.000,"PART-1-1",           338,            5.,        6.5625,            0.,NA,NA,"",       6.12816,      -6.10064,   580.047E-03,   7.39762E-03
C:/temp/dataset/test2/7_9.odb,Step-1,Increment      2: Step Time =    1.000,"PART-1-1",           339,            1.,        6.5625,            0.,NA,NA,"",       5.98188,      -5.97306,  -324.617E-03,   4.82173E-03
C:/temp/dataset/test2/7_9.odb,Step-1,Increment      2: Step Time =    1.000,"PART-1-1",           340,            2.,         5.625,            0.,NA,NA,"",       5.78657,      -5.78607,  -76.2367E-03,   7.67574E-03
C:/temp/dataset/test2/7_9.odb,Step-1,Increment      2: Step Time =    1.000,"PART-1-1",           341,           -1.,        6.5625,            0.,NA,NA,"",       5.96667,      -5.91580,  -777.480E-03,   3.46310E-03
C:/temp/dataset/test2/7_9.odb,Step-1,Increment      2: Step Time =    1.000,"PART-1-1",           342,            0.,         5.625,            0.,NA,NA,"",       5.75029,      -5.72609,  -526.991E-03,   5.41860E-03
C:/temp/dataset/test2/7_9.odb,Step-1,Increment      2: Step Time =    1.000,"PART-1-1",           343,           -3.,        6.5625,            0.,NA,NA,"",       5.98993,      -5.86177,      -1.23245,   2.23649E-03
C:/temp/dataset/test2/7_9.odb,Step-1,Increment      2: Step Time =    1.000,"PART-1-1",           344,           -2.,         5.625,            0.,NA,NA,"",       5.75487,      -5.67100,  -978.937E-03,   3.74434E-03
C:/temp/dataset/test2/7_9.odb,Step-1,Increment      2: Step Time =    1.000,"PART-1-1",           345,           -5.,        6.5625,            0.,NA,NA,"",       6.04994,      -5.80857,      -1.69181,   512.868E-06
C:/temp/dataset/test2/7_9.odb,Step-1,Increment      2: Step Time =    1.000,"PART-1-1",           346,           -4.,         5.625,            0.,NA,NA,"",       5.79870,      -5.61829,      -1.43519,   1.88819E-03
C:/temp/dataset/test2/7_9.odb,Step-1,Increment      2: Step Time =    1.000,"PART-1-1",           347,            3.,        4.6875,            0.,NA,NA,"",       5.60007,      -5.59745,   171.440E-03,   10.0047E-03
C:/temp/dataset/test2/7_9.odb,Step-1,Increment      2: Step Time =    1.000,"PART-1-1",           348,            4.,          3.75,            0.,NA,NA,"",       5.42177,      -5.40536,   421.486E-03,   8.64543E-03
C:/temp/dataset/test2/7_9.odb,Step-1,Increment      2: Step Time =    1.000,"PART-1-1",           349,            5.,        4.6875,            0.,NA,NA,"",       5.70172,      -5.66664,   631.517E-03,   7.79123E-03
C:/temp/dataset/test2/7_9.odb,Step-1,Increment      2: Step Time =    1.000,"PART-1-1",           350,            1.,        4.6875,            0.,NA,NA,"",       5.54271,      -5.53571,  -278.437E-03,   7.53685E-03
C:/temp/dataset/test2/7_9.odb,Step-1,Increment      2: Step Time =    1.000,"PART-1-1",           351,            2.,          3.75,            0.,NA,NA,"",       5.34392,      -5.34383,  -31.0259E-03,   9.12012E-03
C:/temp/dataset/test2/7_9.odb,Step-1,Increment      2: Step Time =    1.000,"PART-1-1",           352,           -1.,        4.6875,            0.,NA,NA,"",       5.52744,      -5.47937,  -727.364E-03,   5.78025E-03
C:/temp/dataset/test2/7_9.odb,Step-1,Increment      2: Step Time =    1.000,"PART-1-1",           353,            0.,          3.75,            0.,NA,NA,"",       5.30843,      -5.28687,  -478.003E-03,   7.68761E-03
C:/temp/dataset/test2/7_9.odb,Step-1,Increment      2: Step Time =    1.000,"PART-1-1",           354,           -3.,        4.6875,            0.,NA,NA,"",       5.55341,      -5.42668,      -1.17959,   4.11102E-03
C:/temp/dataset/test2/7_9.odb,Step-1,Increment      2: Step Time =    1.000,"PART-1-1",           355,           -2.,          3.75,            0.,NA,NA,"",       5.31529,      -5.23399,  -926.116E-03,   5.82648E-03
C:/temp/dataset/test2/7_9.odb,Step-1,Increment      2: Step Time =    1.000,"PART-1-1",           356,           -5.,        4.6875,            0.,NA,NA,"",       5.61921,      -5.37486,      -1.63903,   2.38770E-03
C:/temp/dataset/test2/7_9.odb,Step-1,Increment      2: Step Time =    1.000,"PART-1-1",           357,           -4.,          3.75,            0.,NA,NA,"",       5.36394,      -5.18331,      -1.38025,   3.87382E-03
C:/temp/dataset/test2/7_9.odb,Step-1,Increment      2: Step Time =    1.000,"PART-1-1",           358,            3.,        2.8125,            0.,NA,NA,"",       5.15465,      -5.15006,   217.313E-03,   8.80158E-03
C:/temp/dataset/test2/7_9.odb,Step-1,Increment      2: Step Time =    1.000,"PART-1-1",           359,            4.,         1.875,            0.,NA,NA,"",       4.97810,      -4.95602,   468.381E-03,   6.91129E-03
C:/temp/dataset/test2/7_9.odb,Step-1,Increment      2: Step Time =    1.000,"PART-1-1",           360,            5.,        2.8125,            0.,NA,NA,"",       5.25386,      -5.20959,   680.567E-03,   6.75164E-03
C:/temp/dataset/test2/7_9.odb,Step-1,Increment      2: Step Time =    1.000,"PART-1-1",           361,            1.,        2.8125,            0.,NA,NA,"",       5.09854,      -5.09334,  -230.398E-03,   8.92121E-03
C:/temp/dataset/test2/7_9.odb,Step-1,Increment      2: Step Time =    1.000,"PART-1-1",           362,            2.,         1.875,            0.,NA,NA,"",       4.89916,      -4.89913,   16.3043E-03,   8.54368E-03
C:/temp/dataset/test2/7_9.odb,Step-1,Increment      2: Step Time =    1.000,"PART-1-1",           363,           -1.,        2.8125,            0.,NA,NA,"",       5.08543,      -5.04039,  -675.278E-03,   7.65535E-03
C:/temp/dataset/test2/7_9.odb,Step-1,Increment      2: Step Time =    1.000,"PART-1-1",           364,            0.,         1.875,            0.,NA,NA,"",       4.86504,      -4.84626,  -427.109E-03,   8.63033E-03
C:/temp/dataset/test2/7_9.odb,Step-1,Increment      2: Step Time =    1.000,"PART-1-1",           365,           -3.,        2.8125,            0.,NA,NA,"",       5.11538,      -4.99039,      -1.12389,   6.12609E-03
C:/temp/dataset/test2/7_9.odb,Step-1,Increment      2: Step Time =    1.000,"PART-1-1",           366,           -2.,         1.875,            0.,NA,NA,"",       4.87501,      -4.79660,  -870.809E-03,   7.48084E-03
C:/temp/dataset/test2/7_9.odb,Step-1,Increment      2: Step Time =    1.000,"PART-1-1",           367,           -5.,        2.8125,            0.,NA,NA,"",       5.18819,      -4.94111,      -1.58201,   5.28223E-03
C:/temp/dataset/test2/7_9.odb,Step-1,Increment      2: Step Time =    1.000,"PART-1-1",           368,           -4.,         1.875,            0.,NA,NA,"",       4.92937,      -4.74893,      -1.32150,   6.43448E-03
C:/temp/dataset/test2/7_9.odb,Step-1,Increment      2: Step Time =    1.000,"PART-1-1",           369,            3.,     937.5E-03,            0.,NA,NA,"",       4.71338,      -4.70607,   262.513E-03,   8.06085E-03
C:/temp/dataset/test2/7_9.odb,Step-1,Increment      2: Step Time =    1.000,"PART-1-1",           370,            4.,            0.,            0.,NA,NA,"",       4.54454,      -4.51619,   506.829E-03,   9.88159E-03
C:/temp/dataset/test2/7_9.odb,Step-1,Increment      2: Step Time =    1.000,"PART-1-1",           371,            5.,     937.5E-03,            0.,NA,NA,"",       4.81979,      -4.76605,   717.737E-03,   10.4588E-03
C:/temp/dataset/test2/7_9.odb,Step-1,Increment      2: Step Time =    1.000,"PART-1-1",           372,            1.,     937.5E-03,            0.,NA,NA,"",       4.65579,      -4.65226,  -181.349E-03,   9.04774E-03
C:/temp/dataset/test2/7_9.odb,Step-1,Increment      2: Step Time =    1.000,"PART-1-1",           373,            2.,            0.,            0.,NA,NA,"",       4.46013,      -4.45970,   61.9750E-03,   8.40761E-03
C:/temp/dataset/test2/7_9.odb,Step-1,Increment      2: Step Time =    1.000,"PART-1-1",           374,           -1.,     937.5E-03,            0.,NA,NA,"",       4.64430,      -4.60255,  -621.352E-03,   8.71577E-03
C:/temp/dataset/test2/7_9.odb,Step-1,Increment      2: Step Time =    1.000,"PART-1-1",           375,            0.,            0.,            0.,NA,NA,"",       4.42499,      -4.40902,  -375.657E-03,   8.72921E-03
C:/temp/dataset/test2/7_9.odb,Step-1,Increment      2: Step Time =    1.000,"PART-1-1",           376,           -3.,     937.5E-03,            0.,NA,NA,"",       4.67862,      -4.55576,      -1.06512,   8.05806E-03
C:/temp/dataset/test2/7_9.odb,Step-1,Increment      2: Step Time =    1.000,"PART-1-1",           377,           -2.,            0.,            0.,NA,NA,"",       4.43759,      -4.36240,  -813.427E-03,   8.64499E-03
C:/temp/dataset/test2/7_9.odb,Step-1,Increment      2: Step Time =    1.000,"PART-1-1",           378,           -5.,     937.5E-03,            0.,NA,NA,"",       4.75923,      -4.51003,      -1.51981,   8.88036E-03
C:/temp/dataset/test2/7_9.odb,Step-1,Increment      2: Step Time =    1.000,"PART-1-1",           379,           -4.,            0.,            0.,NA,NA,"",       4.49800,      -4.31828,      -1.25878,   9.30436E-03
C:/temp/dataset/test2/7_9.odb,Step-1,Increment      2: Step Time =    1.000,"PART-1-1",           380,            3.,    -937.5E-03,            0.,NA,NA,"",       4.28066,      -4.26998,   302.159E-03,   9.71043E-03
C:/temp/dataset/test2/7_9.odb,Step-1,Increment      2: Step Time =    1.000,"PART-1-1",           381,            4.,        -1.875,            0.,NA,NA,"",       4.11938,      -4.08405,   538.412E-03,   12.7176E-03
C:/temp/dataset/test2/7_9.odb,Step-1,Increment      2: Step Time =    1.000,"PART-1-1",           382,            5.,    -937.5E-03,            0.,NA,NA,"",       4.39442,      -4.33030,   747.925E-03,   13.8947E-03
C:/temp/dataset/test2/7_9.odb,Step-1,Increment      2: Step Time =    1.000,"PART-1-1",           383,            1.,    -937.5E-03,            0.,NA,NA,"",       4.21917,      -4.21705,  -133.930E-03,   8.98055E-03
C:/temp/dataset/test2/7_9.odb,Step-1,Increment      2: Step Time =    1.000,"PART-1-1",           384,            2.,        -1.875,            0.,NA,NA,"",       4.02908,      -4.02775,   103.388E-03,   9.27711E-03
C:/temp/dataset/test2/7_9.odb,Step-1,Increment      2: Step Time =    1.000,"PART-1-1",           385,           -1.,    -937.5E-03,            0.,NA,NA,"",       4.20803,      -4.16969,  -566.763E-03,   9.18428E-03
C:/temp/dataset/test2/7_9.odb,Step-1,Increment      2: Step Time =    1.000,"PART-1-1",           386,            0.,        -1.875,            0.,NA,NA,"",       3.99186,      -3.97857,  -325.410E-03,   8.68588E-03
C:/temp/dataset/test2/7_9.odb,Step-1,Increment      2: Step Time =    1.000,"PART-1-1",           387,           -3.,    -937.5E-03,            0.,NA,NA,"",       4.24653,      -4.12622,      -1.00367,   9.91581E-03
C:/temp/dataset/test2/7_9.odb,Step-1,Increment      2: Step Time =    1.000,"PART-1-1",           388,           -2.,        -1.875,            0.,NA,NA,"",       4.00653,      -3.93477,  -754.866E-03,   9.59085E-03
C:/temp/dataset/test2/7_9.odb,Step-1,Increment      2: Step Time =    1.000,"PART-1-1",           389,           -5.,    -937.5E-03,            0.,NA,NA,"",       4.33529,      -4.08479,      -1.45231,   12.7865E-03
C:/temp/dataset/test2/7_9.odb,Step-1,Increment      2: Step Time =    1.000,"PART-1-1",           390,           -4.,        -1.875,            0.,NA,NA,"",       4.07307,      -3.89461,      -1.19243,   12.2879E-03
C:/temp/dataset/test2/7_9.odb,Step-1,Increment      2: Step Time =    1.000,"PART-1-1",           391,            3.,       -2.8125,            0.,NA,NA,"",       3.85671,      -3.84207,   335.757E-03,   11.7434E-03
C:/temp/dataset/test2/7_9.odb,Step-1,Increment      2: Step Time =    1.000,"PART-1-1",           392,            4.,         -3.75,            0.,NA,NA,"",       3.70376,      -3.66075,   562.802E-03,   15.6452E-03
C:/temp/dataset/test2/7_9.odb,Step-1,Increment      2: Step Time =    1.000,"PART-1-1",           393,            5.,       -2.8125,            0.,NA,NA,"",       3.97784,      -3.90254,   770.316E-03,   17.4119E-03
C:/temp/dataset/test2/7_9.odb,Step-1,Increment      2: Step Time =    1.000,"PART-1-1",           394,            1.,       -2.8125,            0.,NA,NA,"",       3.79110,      -3.79004,  -89.7386E-03,   9.18790E-03
C:/temp/dataset/test2/7_9.odb,Step-1,Increment      2: Step Time =    1.000,"PART-1-1",           395,            2.,         -3.75,            0.,NA,NA,"",       3.60769,      -3.60497,   139.861E-03,   10.4273E-03
C:/temp/dataset/test2/7_9.odb,Step-1,Increment      2: Step Time =    1.000,"PART-1-1",           396,           -1.,       -2.8125,            0.,NA,NA,"",       3.77981,      -3.74488,  -512.679E-03,   9.43100E-03
C:/temp/dataset/test2/7_9.odb,Step-1,Increment      2: Step Time =    1.000,"PART-1-1",           397,            0.,         -3.75,            0.,NA,NA,"",       3.56825,      -3.55745,  -277.428E-03,   8.65986E-03
C:/temp/dataset/test2/7_9.odb,Step-1,Increment      2: Step Time =    1.000,"PART-1-1",           398,           -3.,       -2.8125,            0.,NA,NA,"",       3.82234,      -3.70490,  -940.219E-03,   11.7958E-03
C:/temp/dataset/test2/7_9.odb,Step-1,Increment      2: Step Time =    1.000,"PART-1-1",           399,           -2.,         -3.75,            0.,NA,NA,"",       3.58482,      -3.51662,  -695.938E-03,   10.5428E-03
C:/temp/dataset/test2/7_9.odb,Step-1,Increment      2: Step Time =    1.000,"PART-1-1",           400,           -5.,       -2.8125,            0.,NA,NA,"",       3.91937,      -3.66839,      -1.37999,   16.7382E-03
C:/temp/dataset/test2/7_9.odb,Step-1,Increment      2: Step Time =    1.000,"PART-1-1",           401,           -4.,         -3.75,            0.,NA,NA,"",       3.65752,      -3.48084,      -1.12304,   15.2900E-03
C:/temp/dataset/test2/7_9.odb,Step-1,Increment      2: Step Time =    1.000,"PART-1-1",           402,            3.,       -4.6875,            0.,NA,NA,"",       3.44336,      -3.42417,   363.044E-03,   13.8699E-03
C:/temp/dataset/test2/7_9.odb,Step-1,Increment      2: Step Time =    1.000,"PART-1-1",           403,            4.,        -5.625,            0.,NA,NA,"",       3.29965,      -3.24836,   579.574E-03,   18.6268E-03
C:/temp/dataset/test2/7_9.odb,Step-1,Increment      2: Step Time =    1.000,"PART-1-1",           404,            5.,       -4.6875,            0.,NA,NA,"",       3.57162,      -3.48444,   784.320E-03,   21.0807E-03
C:/temp/dataset/test2/7_9.odb,Step-1,Increment      2: Step Time =    1.000,"PART-1-1",           405,            1.,       -4.6875,            0.,NA,NA,"",       3.37374,      -3.37338,  -49.4447E-03,   9.55508E-03
C:/temp/dataset/test2/7_9.odb,Step-1,Increment      2: Step Time =    1.000,"PART-1-1",           406,            2.,        -5.625,            0.,NA,NA,"",       3.19805,      -3.19348,   170.978E-03,   11.6880E-03
C:/temp/dataset/test2/7_9.odb,Step-1,Increment      2: Step Time =    1.000,"PART-1-1",           407,           -1.,       -4.6875,            0.,NA,NA,"",       3.36228,      -3.33069,  -459.875E-03,   9.65836E-03
C:/temp/dataset/test2/7_9.odb,Step-1,Increment      2: Step Time =    1.000,"PART-1-1",           408,            0.,        -5.625,            0.,NA,NA,"",       3.15654,      -3.14798,  -232.305E-03,   8.65483E-03
C:/temp/dataset/test2/7_9.odb,Step-1,Increment      2: Step Time =    1.000,"PART-1-1",           409,           -3.,       -4.6875,            0.,NA,NA,"",       3.40888,      -3.29457,  -875.381E-03,   13.7475E-03
C:/temp/dataset/test2/7_9.odb,Step-1,Increment      2: Step Time =    1.000,"PART-1-1",           410,           -2.,        -5.625,            0.,NA,NA,"",       3.17509,      -3.11049,  -637.243E-03,   11.5835E-03
C:/temp/dataset/test2/7_9.odb,Step-1,Increment      2: Step Time =    1.000,"PART-1-1",           411,           -5.,       -4.6875,            0.,NA,NA,"",       3.51417,      -3.26348,      -1.30349,   20.6363E-03
C:/temp/dataset/test2/7_9.odb,Step-1,Increment      2: Step Time =    1.000,"PART-1-1",           412,           -4.,        -5.625,            0.,NA,NA,"",       3.25401,      -3.07955,      -1.05116,   18.2811E-03
C:/temp/dataset/test2/7_9.odb,Step-1,Increment      2: Step Time =    1.000,"PART-1-1",           413,            3.,       -6.5625,            0.,NA,NA,"",       3.04279,      -3.01851,   383.595E-03,   16.0414E-03
C:/temp/dataset/test2/7_9.odb,Step-1,Increment      2: Step Time =    1.000,"PART-1-1",           414,            4.,          -7.5,            0.,NA,NA,"",       2.90931,      -2.84922,   588.217E-03,   21.6529E-03
C:/temp/dataset/test2/7_9.odb,Step-1,Increment      2: Step Time =    1.000,"PART-1-1",           415,            5.,       -6.5625,            0.,NA,NA,"",       3.17781,      -3.07823,   789.280E-03,   24.8328E-03
C:/temp/dataset/test2/7_9.odb,Step-1,Increment      2: Step Time =    1.000,"PART-1-1",           416,            1.,       -6.5625,            0.,NA,NA,"",       2.96938,      -2.96935,  -13.4928E-03,   9.99121E-03
C:/temp/dataset/test2/7_9.odb,Step-1,Increment      2: Step Time =    1.000,"PART-1-1",           417,            2.,          -7.5,            0.,NA,NA,"",       2.80249,      -2.79560,   196.337E-03,   13.0071E-03
C:/temp/dataset/test2/7_9.odb,Step-1,Increment      2: Step Time =    1.000,"PART-1-1",           418,           -1.,       -6.5625,            0.,NA,NA,"",       2.95791,      -2.92951,  -408.863E-03,   9.92941E-03
C:/temp/dataset/test2/7_9.odb,Step-1,Increment      2: Step Time =    1.000,"PART-1-1",           419,            0.,          -7.5,            0.,NA,NA,"",       2.75910,      -2.75251,  -190.466E-03,   8.65698E-03
C:/temp/dataset/test2/7_9.odb,Step-1,Increment      2: Step Time =    1.000,"PART-1-1",           420,           -3.,       -6.5625,            0.,NA,NA,"",       3.00866,      -2.89767,  -809.676E-03,   15.7672E-03
C:/temp/dataset/test2/7_9.odb,Step-1,Increment      2: Step Time =    1.000,"PART-1-1",           421,           -2.,          -7.5,            0.,NA,NA,"",       2.77978,      -2.71876,  -579.235E-03,   12.7121E-03
C:/temp/dataset/test2/7_9.odb,Step-1,Increment      2: Step Time =    1.000,"PART-1-1",           422,           -5.,       -6.5625,            0.,NA,NA,"",       3.12214,      -2.87247,      -1.22339,   24.4734E-03
C:/temp/dataset/test2/7_9.odb,Step-1,Increment      2: Step Time =    1.000,"PART-1-1",           423,           -4.,          -7.5,            0.,NA,NA,"",       2.86492,      -2.69308,  -977.287E-03,   21.2594E-03
C:/temp/dataset/test2/7_9.odb,Step-1,Increment      2: Step Time =    1.000,"PART-1-1",           424,            3.,       -8.4375,            0.,NA,NA,"",       2.65733,      -2.62751,   396.988E-03,   18.2495E-03
C:/temp/dataset/test2/7_9.odb,Step-1,Increment      2: Step Time =    1.000,"PART-1-1",           425,            4.,        -9.375,            0.,NA,NA,"",       2.53503,      -2.46582,   588.294E-03,   24.7054E-03
C:/temp/dataset/test2/7_9.odb,Step-1,Increment      2: Step Time =    1.000,"PART-1-1",           426,            5.,       -8.4375,            0.,NA,NA,"",       2.79858,      -2.68633,   784.680E-03,   28.6328E-03
C:/temp/dataset/test2/7_9.odb,Step-1,Increment      2: Step Time =    1.000,"PART-1-1",           427,            1.,       -8.4375,            0.,NA,NA,"",       2.58039,      -2.58033,   17.7364E-03,   10.4685E-03
C:/temp/dataset/test2/7_9.odb,Step-1,Increment      2: Step Time =    1.000,"PART-1-1",           428,            2.,        -9.375,            0.,NA,NA,"",       2.42339,      -2.41378,   215.562E-03,   14.3740E-03
C:/temp/dataset/test2/7_9.odb,Step-1,Increment      2: Step Time =    1.000,"PART-1-1",           429,           -1.,       -8.4375,            0.,NA,NA,"",       2.56907,      -2.54372,  -360.037E-03,   10.2501E-03
C:/temp/dataset/test2/7_9.odb,Step-1,Increment      2: Step Time =    1.000,"PART-1-1",           430,            0.,        -9.375,            0.,NA,NA,"",       2.37831,      -2.37343,  -152.267E-03,   8.66139E-03
C:/temp/dataset/test2/7_9.odb,Step-1,Increment      2: Step Time =    1.000,"PART-1-1",           431,           -3.,       -8.4375,            0.,NA,NA,"",       2.62408,      -2.51654,  -743.527E-03,   17.8338E-03
C:/temp/dataset/test2/7_9.odb,Step-1,Increment      2: Step Time =    1.000,"PART-1-1",           432,           -2.,        -9.375,            0.,NA,NA,"",       2.40124,      -2.34376,  -522.284E-03,   13.9055E-03
C:/temp/dataset/test2/7_9.odb,Step-1,Increment      2: Step Time =    1.000,"PART-1-1",           433,           -5.,       -8.4375,            0.,NA,NA,"",       2.74556,      -2.49762,      -1.14018,   28.2693E-03
C:/temp/dataset/test2/7_9.odb,Step-1,Increment      2: Step Time =    1.000,"PART-1-1",           434,           -4.,        -9.375,            0.,NA,NA,"",       2.49257,      -2.32370,  -901.828E-03,   24.2288E-03
C:/temp/dataset/test2/7_9.odb,Step-1,Increment      2: Step Time =    1.000,"PART-1-1",           435,            3.,      -10.3125,            0.,NA,NA,"",       2.28937,      -2.25365,   402.845E-03,   20.4891E-03
C:/temp/dataset/test2/7_9.odb,Step-1,Increment      2: Step Time =    1.000,"PART-1-1",           436,            4.,        -11.25,            0.,NA,NA,"",       2.17915,      -2.10070,   579.438E-03,   27.7748E-03
C:/temp/dataset/test2/7_9.odb,Step-1,Increment      2: Step Time =    1.000,"PART-1-1",           437,            5.,      -10.3125,            0.,NA,NA,"",       2.43619,      -2.31128,   770.095E-03,   32.4560E-03
C:/temp/dataset/test2/7_9.odb,Step-1,Increment      2: Step Time =    1.000,"PART-1-1",           438,            1.,      -10.3125,            0.,NA,NA,"",       2.20918,      -2.20875,   43.9034E-03,   10.9832E-03
C:/temp/dataset/test2/7_9.odb,Step-1,Increment      2: Step Time =    1.000,"PART-1-1",           439,            2.,        -11.25,            0.,NA,NA,"",       2.06316,      -2.05049,   228.324E-03,   15.7833E-03
C:/temp/dataset/test2/7_9.odb,Step-1,Increment      2: Step Time =    1.000,"PART-1-1",           440,           -1.,      -10.3125,            0.,NA,NA,"",       2.19816,      -2.17566,  -313.730E-03,   10.6111E-03
C:/temp/dataset/test2/7_9.odb,Step-1,Increment      2: Step Time =    1.000,"PART-1-1",           441,            0.,        -11.25,            0.,NA,NA,"",       2.01658,      -2.01313,  -118.014E-03,   8.66696E-03
C:/temp/dataset/test2/7_9.odb,Step-1,Increment      2: Step Time =    1.000,"PART-1-1",           442,           -3.,      -10.3125,            0.,NA,NA,"",       2.25744,      -2.15345,  -677.282E-03,   19.9282E-03
C:/temp/dataset/test2/7_9.odb,Step-1,Increment      2: Step Time =    1.000,"PART-1-1",           443,           -2.,        -11.25,            0.,NA,NA,"",       2.04185,      -1.98780,  -466.697E-03,   15.1416E-03
C:/temp/dataset/test2/7_9.odb,Step-1,Increment      2: Step Time =    1.000,"PART-1-1",           444,           -5.,      -10.3125,            0.,NA,NA,"",       2.38661,      -2.14114,      -1.05423,   32.0423E-03
C:/temp/dataset/test2/7_9.odb,Step-1,Increment      2: Step Time =    1.000,"PART-1-1",           445,           -4.,        -11.25,            0.,NA,NA,"",       2.13917,      -1.97364,  -825.097E-03,   27.1920E-03
C:/temp/dataset/test2/7_9.odb,Step-1,Increment      2: Step Time =    1.000,"PART-1-1",           446,            3.,      -12.1875,            0.,NA,NA,"",       1.94129,      -1.89946,   400.854E-03,   22.7552E-03
C:/temp/dataset/test2/7_9.odb,Step-1,Increment      2: Step Time =    1.000,"PART-1-1",           447,            4.,       -13.125,            0.,NA,NA,"",       1.84395,      -1.75643,   561.366E-03,   30.8552E-03
C:/temp/dataset/test2/7_9.odb,Step-1,Increment      2: Step Time =    1.000,"PART-1-1",           448,            5.,      -12.1875,            0.,NA,NA,"",       2.09283,      -1.95566,   745.193E-03,   36.2900E-03
C:/temp/dataset/test2/7_9.odb,Step-1,Increment      2: Step Time =    1.000,"PART-1-1",           449,            1.,      -12.1875,            0.,NA,NA,"",       1.85816,      -1.85703,   64.7210E-03,   11.5365E-03
C:/temp/dataset/test2/7_9.odb,Step-1,Increment      2: Step Time =    1.000,"PART-1-1",           450,            2.,       -13.125,            0.,NA,NA,"",       1.72421,      -1.70821,   234.357E-03,   17.2303E-03
C:/temp/dataset/test2/7_9.odb,Step-1,Increment      2: Step Time =    1.000,"PART-1-1",           451,           -1.,      -12.1875,            0.,NA,NA,"",       1.84755,      -1.82768,  -270.216E-03,   11.0017E-03
C:/temp/dataset/test2/7_9.odb,Step-1,Increment      2: Step Time =    1.000,"PART-1-1",           452,            0.,       -13.125,            0.,NA,NA,"",       1.67631,      -1.67400,  -87.9576E-03,   8.67402E-03
C:/temp/dataset/test2/7_9.odb,Step-1,Increment      2: Step Time =    1.000,"PART-1-1",           453,           -3.,      -12.1875,            0.,NA,NA,"",       1.91105,      -1.81067,  -611.217E-03,   22.0375E-03
C:/temp/dataset/test2/7_9.odb,Step-1,Increment      2: Step Time =    1.000,"PART-1-1",           454,           -2.,       -13.125,            0.,NA,NA,"",       1.70392,      -1.65319,  -412.716E-03,   16.4042E-03
C:/temp/dataset/test2/7_9.odb,Step-1,Increment      2: Step Time =    1.000,"PART-1-1",           455,           -5.,      -12.1875,            0.,NA,NA,"",       2.04736,      -1.80524,  -965.808E-03,   35.8030E-03
C:/temp/dataset/test2/7_9.odb,Step-1,Increment      2: Step Time =    1.000,"PART-1-1",           456,           -4.,       -13.125,            0.,NA,NA,"",       1.80692,      -1.64513,  -747.330E-03,   30.1502E-03
C:/temp/dataset/test2/7_9.odb,Step-1,Increment      2: Step Time =    1.000,"PART-1-1",           457,            3.,      -14.0625,            0.,NA,NA,"",       1.61546,      -1.56748,   390.779E-03,   25.0429E-03
C:/temp/dataset/test2/7_9.odb,Step-1,Increment      2: Step Time =    1.000,"PART-1-1",           458,            4.,          -15.,            0.,NA,NA,"",       1.53167,      -1.43561,   533.886E-03,   33.9429E-03
C:/temp/dataset/test2/7_9.odb,Step-1,Increment      2: Step Time =    1.000,"PART-1-1",           459,            5.,      -14.0625,            0.,NA,NA,"",       1.77060,      -1.62213,   709.735E-03,   40.1284E-03
C:/temp/dataset/test2/7_9.odb,Step-1,Increment      2: Step Time =    1.000,"PART-1-1",           460,            1.,      -14.0625,            0.,NA,NA,"",       1.52974,      -1.52765,   79.9695E-03,   12.1289E-03
C:/temp/dataset/test2/7_9.odb,Step-1,Increment      2: Step Time =    1.000,"PART-1-1",           461,            2.,          -15.,            0.,NA,NA,"",       1.40895,      -1.38947,   233.476E-03,   18.7104E-03
C:/temp/dataset/test2/7_9.odb,Step-1,Increment      2: Step Time =    1.000,"PART-1-1",           462,           -1.,      -14.0625,            0.,NA,NA,"",       1.51961,      -1.50215,  -229.706E-03,   11.4130E-03
C:/temp/dataset/test2/7_9.odb,Step-1,Increment      2: Step Time =    1.000,"PART-1-1",           463,            0.,          -15.,            0.,NA,NA,"",       1.35990,      -1.35848,  -62.2718E-03,   8.68321E-03
C:/temp/dataset/test2/7_9.odb,Step-1,Increment      2: Step Time =    1.000,"PART-1-1",           464,           -3.,      -14.0625,            0.,NA,NA,"",       1.58717,      -1.49047,  -545.531E-03,   24.1539E-03
C:/temp/dataset/test2/7_9.odb,Step-1,Increment      2: Step Time =    1.000,"PART-1-1",           465,           -2.,          -15.,            0.,NA,NA,"",       1.38981,      -1.34224,  -360.504E-03,   17.6826E-03
C:/temp/dataset/test2/7_9.odb,Step-1,Increment      2: Step Time =    1.000,"PART-1-1",           466,           -5.,      -14.0625,            0.,NA,NA,"",       1.72976,      -1.49208,  -875.092E-03,   39.5567E-03
C:/temp/dataset/test2/7_9.odb,Step-1,Increment      2: Step Time =    1.000,"PART-1-1",           467,           -4.,          -15.,            0.,NA,NA,"",       1.49791,      -1.34038,  -668.675E-03,   33.1038E-03
C:/temp/dataset/test2/7_9.odb,Step-1,Increment      2: Step Time =    1.000,"PART-1-1",           468,            3.,      -15.9375,            0.,NA,NA,"",       1.31418,      -1.26029,   372.479E-03,   27.3478E-03
C:/temp/dataset/test2/7_9.odb,Step-1,Increment      2: Step Time =    1.000,"PART-1-1",           469,            4.,       -16.875,            0.,NA,NA,"",       1.24440,      -1.14088,   496.906E-03,   37.0345E-03
C:/temp/dataset/test2/7_9.odb,Step-1,Increment      2: Step Time =    1.000,"PART-1-1",           470,            5.,      -15.9375,            0.,NA,NA,"",       1.47145,      -1.31333,   663.576E-03,   43.9668E-03
C:/temp/dataset/test2/7_9.odb,Step-1,Increment      2: Step Time =    1.000,"PART-1-1",           471,            1.,      -15.9375,            0.,NA,NA,"",       1.22635,      -1.22308,   89.5099E-03,   12.7601E-03
C:/temp/dataset/test2/7_9.odb,Step-1,Increment      2: Step Time =    1.000,"PART-1-1",           472,            2.,       -16.875,            0.,NA,NA,"",       1.11977,      -1.09681,   225.586E-03,   20.2193E-03
C:/temp/dataset/test2/7_9.odb,Step-1,Increment      2: Step Time =    1.000,"PART-1-1",           473,           -1.,      -15.9375,            0.,NA,NA,"",       1.21673,      -1.20143,  -192.327E-03,   11.8386E-03
C:/temp/dataset/test2/7_9.odb,Step-1,Increment      2: Step Time =    1.000,"PART-1-1",           474,            0.,       -16.875,            0.,NA,NA,"",       1.06977,      -1.06898,  -41.0484E-03,   8.69584E-03
C:/temp/dataset/test2/7_9.odb,Step-1,Increment      2: Step Time =    1.000,"PART-1-1",           475,           -3.,      -15.9375,            0.,NA,NA,"",       1.28802,      -1.19511,  -480.339E-03,   26.2725E-03
C:/temp/dataset/test2/7_9.odb,Step-1,Increment      2: Step Time =    1.000,"PART-1-1",           476,           -2.,       -16.875,            0.,NA,NA,"",       1.10183,      -1.05728,  -310.141E-03,   18.9697E-03
C:/temp/dataset/test2/7_9.odb,Step-1,Increment      2: Step Time =    1.000,"PART-1-1",           477,           -5.,      -15.9375,            0.,NA,NA,"",       1.43562,      -1.20383,  -782.176E-03,   43.3063E-03
C:/temp/dataset/test2/7_9.odb,Step-1,Increment      2: Step Time =    1.000,"PART-1-1",           478,           -4.,       -16.875,            0.,NA,NA,"",       1.21415,      -1.06161,  -589.191E-03,   36.0533E-03
C:/temp/dataset/test2/7_9.odb,Step-1,Increment      2: Step Time =    1.000,"PART-1-1",           479,            3.,      -17.8125,            0.,NA,NA,"",       1.03973,  -980.498E-03,   345.908E-03,   29.6667E-03
C:/temp/dataset/test2/7_9.odb,Step-1,Increment      2: Step Time =    1.000,"PART-1-1",           480,            4.,        -18.75,            0.,NA,NA,"",   984.076E-03,  -874.933E-03,   450.442E-03,   40.1235E-03
C:/temp/dataset/test2/7_9.odb,Step-1,Increment      2: Step Time =    1.000,"PART-1-1",           481,            5.,      -17.8125,            0.,NA,NA,"",       1.19711,      -1.03199,   606.681E-03,   47.7977E-03
C:/temp/dataset/test2/7_9.odb,Step-1,Increment      2: Step Time =    1.000,"PART-1-1",           482,            1.,      -17.8125,            0.,NA,NA,"",   950.389E-03,  -945.798E-03,   93.2937E-03,   13.4307E-03
C:/temp/dataset/test2/7_9.odb,Step-1,Increment      2: Step Time =    1.000,"PART-1-1",           483,            2.,        -18.75,            0.,NA,NA,"",   859.009E-03,  -832.770E-03,   210.689E-03,   21.7568E-03
C:/temp/dataset/test2/7_9.odb,Step-1,Increment      2: Step Time =    1.000,"PART-1-1",           484,           -1.,      -17.8125,            0.,NA,NA,"",   941.283E-03,  -927.907E-03,  -158.120E-03,   12.2745E-03
C:/temp/dataset/test2/7_9.odb,Step-1,Increment      2: Step Time =    1.000,"PART-1-1",           485,            0.,        -18.75,            0.,NA,NA,"",   808.307E-03,  -807.942E-03,  -24.2849E-03,   8.71630E-03
C:/temp/dataset/test2/7_9.odb,Step-1,Increment      2: Step Time =    1.000,"PART-1-1",           486,           -3.,      -17.8125,            0.,NA,NA,"",       1.01580,  -926.857E-03,  -415.663E-03,   28.3911E-03
C:/temp/dataset/test2/7_9.odb,Step-1,Increment      2: Step Time =    1.000,"PART-1-1",           487,           -2.,        -18.75,            0.,NA,NA,"",   842.291E-03,  -800.635E-03,  -261.609E-03,   20.2616E-03
C:/temp/dataset/test2/7_9.odb,Step-1,Increment      2: Step Time =    1.000,"PART-1-1",           488,           -5.,      -17.8125,            0.,NA,NA,"",       1.16647,  -942.656E-03,  -687.057E-03,   47.0540E-03
C:/temp/dataset/test2/7_9.odb,Step-1,Increment      2: Step Time =    1.000,"PART-1-1",           489,           -4.,        -18.75,            0.,NA,NA,"",   957.430E-03,  -811.023E-03,  -508.836E-03,   38.9988E-03
C:/temp/dataset/test2/7_9.odb,Step-1,Increment      2: Step Time =    1.000,"PART-1-1",           490,            3.,      -19.6875,            0.,NA,NA,"",   794.210E-03,  -730.729E-03,   311.134E-03,   31.9962E-03
C:/temp/dataset/test2/7_9.odb,Step-1,Increment      2: Step Time =    1.000,"PART-1-1",           491,            4.,       -20.625,            0.,NA,NA,"",   752.273E-03,  -640.448E-03,   394.640E-03,   43.2045E-03
C:/temp/dataset/test2/7_9.odb,Step-1,Increment      2: Step Time =    1.000,"PART-1-1",           492,            5.,      -19.6875,            0.,NA,NA,"",   948.894E-03,  -780.850E-03,   539.140E-03,   51.6104E-03
C:/temp/dataset/test2/7_9.odb,Step-1,Increment      2: Step Time =    1.000,"PART-1-1",           493,            1.,      -19.6875,            0.,NA,NA,"",   704.271E-03,  -698.318E-03,   91.3717E-03,   14.1528E-03
C:/temp/dataset/test2/7_9.odb,Step-1,Increment      2: Step Time =    1.000,"PART-1-1",           494,            2.,       -20.625,            0.,NA,NA,"",   628.961E-03,  -599.928E-03,   188.885E-03,   23.3269E-03
C:/temp/dataset/test2/7_9.odb,Step-1,Increment      2: Step Time =    1.000,"PART-1-1",           495,           -1.,      -19.6875,            0.,NA,NA,"",   695.650E-03,  -683.955E-03,  -127.025E-03,   12.7256E-03
C:/temp/dataset/test2/7_9.odb,Step-1,Increment      2: Step Time =    1.000,"PART-1-1",           496,            0.,       -20.625,            0.,NA,NA,"",   577.914E-03,  -577.792E-03,  -11.8730E-03,   8.75670E-03
C:/temp/dataset/test2/7_9.odb,Step-1,Increment      2: Step Time =    1.000,"PART-1-1",           497,           -3.,      -19.6875,            0.,NA,NA,"",   772.544E-03,  -687.987E-03,  -351.423E-03,   30.5074E-03
C:/temp/dataset/test2/7_9.odb,Step-1,Increment      2: Step Time =    1.000,"PART-1-1",           498,           -2.,       -20.625,            0.,NA,NA,"",   613.443E-03,  -574.617E-03,  -214.772E-03,   21.5601E-03
C:/temp/dataset/test2/7_9.odb,Step-1,Increment      2: Step Time =    1.000,"PART-1-1",           499,           -5.,      -19.6875,            0.,NA,NA,"",   923.451E-03,  -710.709E-03,  -589.623E-03,   50.8064E-03
C:/temp/dataset/test2/7_9.odb,Step-1,Increment      2: Step Time =    1.000,"PART-1-1",           500,           -4.,       -20.625,            0.,NA,NA,"",   729.258E-03,  -590.840E-03,  -427.465E-03,   41.9474E-03
C:/temp/dataset/test2/7_9.odb,Step-1,Increment      2: Step Time =    1.000,"PART-1-1",           501,            3.,      -21.5625,            0.,NA,NA,"",   579.481E-03,  -513.616E-03,   268.323E-03,   34.3615E-03
C:/temp/dataset/test2/7_9.odb,Step-1,Increment      2: Step Time =    1.000,"PART-1-1",           502,            4.,         -22.5,            0.,NA,NA,"",   550.025E-03,  -440.172E-03,   329.812E-03,   46.2333E-03
C:/temp/dataset/test2/7_9.odb,Step-1,Increment      2: Step Time =    1.000,"PART-1-1",           503,            5.,      -21.5625,            0.,NA,NA,"",   727.523E-03,  -562.661E-03,   461.196E-03,   55.3411E-03
C:/temp/dataset/test2/7_9.odb,Step-1,Increment      2: Step Time =    1.000,"PART-1-1",           504,            1.,      -21.5625,            0.,NA,NA,"",   490.339E-03,  -483.112E-03,   83.8780E-03,   14.9508E-03
C:/temp/dataset/test2/7_9.odb,Step-1,Increment      2: Step Time =    1.000,"PART-1-1",           505,            2.,         -22.5,            0.,NA,NA,"",   431.729E-03,  -400.835E-03,   160.377E-03,   24.9891E-03
C:/temp/dataset/test2/7_9.odb,Step-1,Increment      2: Step Time =    1.000,"PART-1-1",           506,           -1.,      -21.5625,            0.,NA,NA,"",   482.174E-03,  -471.936E-03,  -98.8381E-03,   13.2146E-03
C:/temp/dataset/test2/7_9.odb,Step-1,Increment      2: Step Time =    1.000,"PART-1-1",           507,            0.,         -22.5,            0.,NA,NA,"",   380.974E-03,  -380.957E-03,  -3.59201E-03,   8.87731E-03
C:/temp/dataset/test2/7_9.odb,Step-1,Increment      2: Step Time =    1.000,"PART-1-1",           508,           -3.,      -21.5625,            0.,NA,NA,"",   560.125E-03,  -480.769E-03,  -287.405E-03,   32.6479E-03
C:/temp/dataset/test2/7_9.odb,Step-1,Increment      2: Step Time =    1.000,"PART-1-1",           509,           -2.,         -22.5,            0.,NA,NA,"",   417.462E-03,  -381.565E-03,  -169.360E-03,   22.9207E-03
C:/temp/dataset/test2/7_9.odb,Step-1,Increment      2: Step Time =    1.000,"PART-1-1",           510,           -5.,      -21.5625,            0.,NA,NA,"",   707.115E-03,  -510.147E-03,  -489.655E-03,   54.5240E-03
C:/temp/dataset/test2/7_9.odb,Step-1,Increment      2: Step Time =    1.000,"PART-1-1",           511,           -4.,         -22.5,            0.,NA,NA,"",   530.639E-03,  -403.329E-03,  -344.824E-03,   44.8648E-03
C:/temp/dataset/test2/7_9.odb,Step-1,Increment      2: Step Time =    1.000,"PART-1-1",           512,            3.,      -23.4375,            0.,NA,NA,"",   396.906E-03,  -331.820E-03,   217.784E-03,   36.7520E-03
C:/temp/dataset/test2/7_9.odb,Step-1,Increment      2: Step Time =    1.000,"PART-1-1",           513,            4.,       -24.375,            0.,NA,NA,"",   377.150E-03,  -276.586E-03,   256.403E-03,   49.2733E-03
C:/temp/dataset/test2/7_9.odb,Step-1,Increment      2: Step Time =    1.000,"PART-1-1",           514,            5.,      -23.4375,            0.,NA,NA,"",   532.909E-03,  -380.210E-03,   373.407E-03,   58.9847E-03
C:/temp/dataset/test2/7_9.odb,Step-1,Increment      2: Step Time =    1.000,"PART-1-1",           515,            1.,      -23.4375,            0.,NA,NA,"",   310.879E-03,  -302.642E-03,   71.0894E-03,   15.9149E-03
C:/temp/dataset/test2/7_9.odb,Step-1,Increment      2: Step Time =    1.000,"PART-1-1",           516,            2.,       -24.375,            0.,NA,NA,"",   268.905E-03,  -237.939E-03,   125.279E-03,   26.7469E-03
C:/temp/dataset/test2/7_9.odb,Step-1,Increment      2: Step Time =    1.000,"PART-1-1",           517,           -1.,      -23.4375,            0.,NA,NA,"",   303.199E-03,  -294.216E-03,  -73.2566E-03,   13.8322E-03
C:/temp/dataset/test2/7_9.odb,Step-1,Increment      2: Step Time =    1.000,"PART-1-1",           518,            0.,       -24.375,            0.,NA,NA,"",   219.751E-03,  -219.749E-03,   940.651E-06,   9.12705E-03
C:/temp/dataset/test2/7_9.odb,Step-1,Increment      2: Step Time =    1.000,"PART-1-1",           519,           -3.,      -23.4375,            0.,NA,NA,"",   380.076E-03,  -307.579E-03,  -223.279E-03,   34.8010E-03
C:/temp/dataset/test2/7_9.odb,Step-1,Increment      2: Step Time =    1.000,"PART-1-1",           520,           -2.,       -24.375,            0.,NA,NA,"",   256.211E-03,  -223.813E-03,  -124.708E-03,   24.3535E-03
C:/temp/dataset/test2/7_9.odb,Step-1,Increment      2: Step Time =    1.000,"PART-1-1",           521,           -5.,      -23.4375,            0.,NA,NA,"",   517.164E-03,  -343.169E-03,  -386.902E-03,   58.2442E-03
C:/temp/dataset/test2/7_9.odb,Step-1,Increment      2: Step Time =    1.000,"PART-1-1",           522,           -4.,       -24.375,            0.,NA,NA,"",   361.539E-03,  -250.653E-03,  -260.545E-03,   47.8549E-03
C:/temp/dataset/test2/7_9.odb,Step-1,Increment      2: Step Time =    1.000,"PART-1-1",           523,            3.,      -25.3125,            0.,NA,NA,"",   246.303E-03,  -187.577E-03,   159.625E-03,   39.5247E-03
C:/temp/dataset/test2/7_9.odb,Step-1,Increment      2: Step Time =    1.000,"PART-1-1",           524,            4.,        -26.25,            0.,NA,NA,"",   232.317E-03,  -152.260E-03,   175.465E-03,   52.0895E-03
C:/temp/dataset/test2/7_9.odb,Step-1,Increment      2: Step Time =    1.000,"PART-1-1",           525,            5.,      -25.3125,            0.,NA,NA,"",   363.373E-03,  -235.723E-03,   276.540E-03,   61.8212E-03
C:/temp/dataset/test2/7_9.odb,Step-1,Increment      2: Step Time =    1.000,"PART-1-1",           526,            1.,      -25.3125,            0.,NA,NA,"",   167.857E-03,  -159.226E-03,   53.1328E-03,   16.9453E-03
C:/temp/dataset/test2/7_9.odb,Step-1,Increment      2: Step Time =    1.000,"PART-1-1",           527,            2.,        -26.25,            0.,NA,NA,"",   141.459E-03,  -113.593E-03,   84.3058E-03,   28.8461E-03
C:/temp/dataset/test2/7_9.odb,Step-1,Increment      2: Step Time =    1.000,"PART-1-1",           528,           -1.,      -25.3125,            0.,NA,NA,"",   160.906E-03,  -153.120E-03,  -49.4474E-03,   14.5234E-03
C:/temp/dataset/test2/7_9.odb,Step-1,Increment      2: Step Time =    1.000,"PART-1-1",           529,            0.,        -26.25,            0.,NA,NA,"",   96.9089E-03,  -96.8826E-03,   2.25775E-03,   9.35530E-03
C:/temp/dataset/test2/7_9.odb,Step-1,Increment      2: Step Time =    1.000,"PART-1-1",           530,           -3.,      -25.3125,            0.,NA,NA,"",   232.578E-03,  -170.533E-03,  -158.148E-03,   37.3979E-03
C:/temp/dataset/test2/7_9.odb,Step-1,Increment      2: Step Time =    1.000,"PART-1-1",           531,           -2.,        -26.25,            0.,NA,NA,"",   131.253E-03,  -103.712E-03,  -80.4436E-03,   26.2588E-03
C:/temp/dataset/test2/7_9.odb,Step-1,Increment      2: Step Time =    1.000,"PART-1-1",           532,           -5.,      -25.3125,            0.,NA,NA,"",   351.913E-03,  -211.713E-03,  -281.105E-03,   61.1355E-03
C:/temp/dataset/test2/7_9.odb,Step-1,Increment      2: Step Time =    1.000,"PART-1-1",           533,           -4.,        -26.25,            0.,NA,NA,"",   220.779E-03,  -135.364E-03,  -174.413E-03,   50.6510E-03
C:/temp/dataset/test2/7_9.odb,Step-1,Increment      2: Step Time =    1.000,"PART-1-1",           534,            3.,      -27.1875,            0.,NA,NA,"",   125.670E-03,  -82.2858E-03,   94.9838E-03,   41.4701E-03
C:/temp/dataset/test2/7_9.odb,Step-1,Increment      2: Step Time =    1.000,"PART-1-1",           535,            4.,       -28.125,            0.,NA,NA,"",   106.315E-03,  -62.2908E-03,   86.1550E-03,   55.6525E-03
C:/temp/dataset/test2/7_9.odb,Step-1,Increment      2: Step Time =    1.000,"PART-1-1",           536,            5.,      -27.1875,            0.,NA,NA,"",   217.967E-03,  -130.968E-03,   174.233E-03,   65.3307E-03
C:/temp/dataset/test2/7_9.odb,Step-1,Increment      2: Step Time =    1.000,"PART-1-1",           537,            1.,      -27.1875,            0.,NA,NA,"",   64.5123E-03,  -56.4061E-03,   31.3079E-03,   16.9204E-03
C:/temp/dataset/test2/7_9.odb,Step-1,Increment      2: Step Time =    1.000,"PART-1-1",           538,            2.,       -28.125,            0.,NA,NA,"",   49.5992E-03,  -30.6926E-03,   38.9621E-03,   29.3915E-03
C:/temp/dataset/test2/7_9.odb,Step-1,Increment      2: Step Time =    1.000,"PART-1-1",           539,           -1.,      -27.1875,            0.,NA,NA,"",   59.0724E-03,  -52.3169E-03,  -27.4315E-03,   14.4965E-03
C:/temp/dataset/test2/7_9.odb,Step-1,Increment      2: Step Time =    1.000,"PART-1-1",           540,            0.,       -28.125,            0.,NA,NA,"",   18.3389E-03,  -18.2928E-03,   1.29851E-03,   7.37074E-03
C:/temp/dataset/test2/7_9.odb,Step-1,Increment      2: Step Time =    1.000,"PART-1-1",           541,           -3.,      -27.1875,            0.,NA,NA,"",   116.202E-03,  -71.2701E-03,  -91.7796E-03,   39.1438E-03
C:/temp/dataset/test2/7_9.odb,Step-1,Increment      2: Step Time =    1.000,"PART-1-1",           542,           -2.,       -28.125,            0.,NA,NA,"",   44.0422E-03,  -24.9255E-03,  -36.3102E-03,   26.6850E-03
C:/temp/dataset/test2/7_9.odb,Step-1,Increment      2: Step Time =    1.000,"PART-1-1",           543,           -5.,      -27.1875,            0.,NA,NA,"",   210.250E-03,  -117.330E-03,  -174.467E-03,   64.9130E-03
C:/temp/dataset/test2/7_9.odb,Step-1,Increment      2: Step Time =    1.000,"PART-1-1",           544,           -4.,       -28.125,            0.,NA,NA,"",   99.0962E-03,  -52.8135E-03,  -83.8498E-03,   54.2082E-03
C:/temp/dataset/test2/7_9.odb,Step-1,Increment      2: Step Time =    1.000,"PART-1-1",           545,            3.,      -29.0625,            0.,NA,NA,"",   30.8469E-03,  -13.3890E-03,   27.7897E-03,   37.1785E-03
C:/temp/dataset/test2/7_9.odb,Step-1,Increment      2: Step Time =    1.000,"PART-1-1",           546,            4.,          -30.,            0.,NA,NA,"",            0.,  -356.085E-42,   170.350E-42,   56.2515E-03
C:/temp/dataset/test2/7_9.odb,Step-1,Increment      2: Step Time =    1.000,"PART-1-1",           547,            5.,      -29.0625,            0.,NA,NA,"",   80.9758E-03,  -53.8322E-03,   60.4911E-03,   72.5410E-03
C:/temp/dataset/test2/7_9.odb,Step-1,Increment      2: Step Time =    1.000,"PART-1-1",           548,            1.,      -29.0625,            0.,NA,NA,"",   9.45821E-03,  -2.17130E-03,   9.20560E-03,   11.8930E-03
C:/temp/dataset/test2/7_9.odb,Step-1,Increment      2: Step Time =    1.000,"PART-1-1",           549,            2.,          -30.,            0.,NA,NA,"",            0.,  -218.874E-42,   24.5900E-42,   21.5436E-03
C:/temp/dataset/test2/7_9.odb,Step-1,Increment      2: Step Time =    1.000,"PART-1-1",           550,           -1.,      -29.0625,            0.,NA,NA,"",   8.20746E-03,  -426.859E-06,  -8.19635E-03,   10.5077E-03
C:/temp/dataset/test2/7_9.odb,Step-1,Increment      2: Step Time =    1.000,"PART-1-1",           551,            0.,          -30.,            0.,NA,NA,"",            0.,   48.5312E-42,   66.3627E-42,   5.55302E-03
C:/temp/dataset/test2/7_9.odb,Step-1,Increment      2: Step Time =    1.000,"PART-1-1",           552,           -3.,      -29.0625,            0.,NA,NA,"",   27.9479E-03,  -8.65723E-03,  -26.5733E-03,   35.1745E-03
C:/temp/dataset/test2/7_9.odb,Step-1,Increment      2: Step Time =    1.000,"PART-1-1",           553,           -2.,          -30.,            0.,NA,NA,"",            0.,   334.050E-42,   274.762E-42,   21.0962E-03
C:/temp/dataset/test2/7_9.odb,Step-1,Increment      2: Step Time =    1.000,"PART-1-1",           554,           -5.,      -29.0625,            0.,NA,NA,"",   76.9769E-03,  -49.2450E-03,  -59.1639E-03,   70.2648E-03
C:/temp/dataset/test2/7_9.odb,Step-1,Increment      2: Step Time =    1.000,"PART-1-1",           555,           -4.,          -30.,            0.,NA,NA,"",            0.,   300.283E-42,   848.080E-42,   53.3936E-03
