ODB Name,Step,Frame,Part Instance Name,    êﬂì_ÉâÉxÉã,X,Y,Z,Section Name,Material Name,Section Point,   U-Magnitude,          U-U1,          U-U2,       S-Mises
C:/temp/dataset/test2/9_6.odb,Step-1,Increment      1: Step Time =    1.000,"PART-1-1",             1,            5.,           30.,            0.,NA,NA,"",       5.04507,      -5.03830,   261.301E-03,   4.45105E-09
C:/temp/dataset/test2/9_6.odb,Step-1,Increment      1: Step Time =    1.000,"PART-1-1",             2,            3.,           30.,            0.,NA,NA,"",       5.02958,      -5.02910,   69.6678E-03,   4.02385E-09
C:/temp/dataset/test2/9_6.odb,Step-1,Increment      1: Step Time =    1.000,"PART-1-1",             3,            1.,           30.,            0.,NA,NA,"",       5.02138,      -5.01990,  -121.965E-03,   3.67734E-09
C:/temp/dataset/test2/9_6.odb,Step-1,Increment      1: Step Time =    1.000,"PART-1-1",             4,           -1.,           30.,            0.,NA,NA,"",       5.02050,      -5.01070,  -313.599E-03,   3.46041E-09
C:/temp/dataset/test2/9_6.odb,Step-1,Increment      1: Step Time =    1.000,"PART-1-1",             5,           -3.,           30.,            0.,NA,NA,"",       5.02695,      -5.00149,  -505.232E-03,   4.37848E-09
C:/temp/dataset/test2/9_6.odb,Step-1,Increment      1: Step Time =    1.000,"PART-1-1",             6,           -5.,           30.,            0.,NA,NA,"",       5.04070,      -4.99229,  -696.865E-03,   4.48644E-09
C:/temp/dataset/test2/9_6.odb,Step-1,Increment      1: Step Time =    1.000,"PART-1-1",             7,            5.,        28.125,            0.,NA,NA,"",       4.86614,      -4.85865,   269.928E-03,   4.85910E-09
C:/temp/dataset/test2/9_6.odb,Step-1,Increment      1: Step Time =    1.000,"PART-1-1",             8,            3.,        28.125,            0.,NA,NA,"",       4.85008,      -4.84944,   78.2947E-03,   8.20714E-09
C:/temp/dataset/test2/9_6.odb,Step-1,Increment      1: Step Time =    1.000,"PART-1-1",             9,            1.,        28.125,            0.,NA,NA,"",       4.84157,      -4.84024,  -113.339E-03,   14.5353E-09
C:/temp/dataset/test2/9_6.odb,Step-1,Increment      1: Step Time =    1.000,"PART-1-1",            10,           -1.,        28.125,            0.,NA,NA,"",       4.84066,      -4.83104,  -304.972E-03,   15.0262E-09
C:/temp/dataset/test2/9_6.odb,Step-1,Increment      1: Step Time =    1.000,"PART-1-1",            11,           -3.,        28.125,            0.,NA,NA,"",       4.84734,      -4.82184,  -496.605E-03,   8.75006E-09
C:/temp/dataset/test2/9_6.odb,Step-1,Increment      1: Step Time =    1.000,"PART-1-1",            12,           -5.,        28.125,            0.,NA,NA,"",       4.86160,      -4.81264,  -688.238E-03,   4.33839E-09
C:/temp/dataset/test2/9_6.odb,Step-1,Increment      1: Step Time =    1.000,"PART-1-1",            13,            5.,         26.25,            0.,NA,NA,"",       4.68727,      -4.67899,   278.555E-03,   10.1255E-09
C:/temp/dataset/test2/9_6.odb,Step-1,Increment      1: Step Time =    1.000,"PART-1-1",            14,            3.,         26.25,            0.,NA,NA,"",       4.67060,      -4.66979,   86.9215E-03,   33.1913E-09
C:/temp/dataset/test2/9_6.odb,Step-1,Increment      1: Step Time =    1.000,"PART-1-1",            15,            1.,         26.25,            0.,NA,NA,"",       4.66176,      -4.66059,  -104.712E-03,   44.4103E-09
C:/temp/dataset/test2/9_6.odb,Step-1,Increment      1: Step Time =    1.000,"PART-1-1",            16,           -1.,         26.25,            0.,NA,NA,"",       4.66081,      -4.65138,  -296.345E-03,   44.8272E-09
C:/temp/dataset/test2/9_6.odb,Step-1,Increment      1: Step Time =    1.000,"PART-1-1",            17,           -3.,         26.25,            0.,NA,NA,"",       4.66776,      -4.64218,  -487.978E-03,   33.7289E-09
C:/temp/dataset/test2/9_6.odb,Step-1,Increment      1: Step Time =    1.000,"PART-1-1",            18,           -5.,         26.25,            0.,NA,NA,"",       4.68256,      -4.63298,  -679.611E-03,   11.4062E-09
C:/temp/dataset/test2/9_6.odb,Step-1,Increment      1: Step Time =    1.000,"PART-1-1",            19,            5.,        24.375,            0.,NA,NA,"",       4.50849,      -4.49933,   287.182E-03,   52.7919E-09
C:/temp/dataset/test2/9_6.odb,Step-1,Increment      1: Step Time =    1.000,"PART-1-1",            20,            3.,        24.375,            0.,NA,NA,"",       4.49115,      -4.49013,   95.5484E-03,   89.8214E-09
C:/temp/dataset/test2/9_6.odb,Step-1,Increment      1: Step Time =    1.000,"PART-1-1",            21,            1.,        24.375,            0.,NA,NA,"",       4.48196,      -4.48093,  -96.0850E-03,   108.691E-09
C:/temp/dataset/test2/9_6.odb,Step-1,Increment      1: Step Time =    1.000,"PART-1-1",            22,           -1.,        24.375,            0.,NA,NA,"",       4.48097,      -4.47173,  -287.718E-03,   108.901E-09
C:/temp/dataset/test2/9_6.odb,Step-1,Increment      1: Step Time =    1.000,"PART-1-1",            23,           -3.,        24.375,            0.,NA,NA,"",       4.48820,      -4.46253,  -479.351E-03,   90.4204E-09
C:/temp/dataset/test2/9_6.odb,Step-1,Increment      1: Step Time =    1.000,"PART-1-1",            24,           -5.,        24.375,            0.,NA,NA,"",       4.50359,      -4.45332,  -670.985E-03,   55.0018E-09
C:/temp/dataset/test2/9_6.odb,Step-1,Increment      1: Step Time =    1.000,"PART-1-1",            25,            5.,          22.5,            0.,NA,NA,"",       4.32979,      -4.31968,   295.809E-03,   165.872E-09
C:/temp/dataset/test2/9_6.odb,Step-1,Increment      1: Step Time =    1.000,"PART-1-1",            26,            3.,          22.5,            0.,NA,NA,"",       4.31174,      -4.31048,   104.175E-03,   196.301E-09
C:/temp/dataset/test2/9_6.odb,Step-1,Increment      1: Step Time =    1.000,"PART-1-1",            27,            1.,          22.5,            0.,NA,NA,"",       4.30216,      -4.30127,  -87.4583E-03,   223.170E-09
C:/temp/dataset/test2/9_6.odb,Step-1,Increment      1: Step Time =    1.000,"PART-1-1",            28,           -1.,          22.5,            0.,NA,NA,"",       4.30114,      -4.29207,  -279.092E-03,   223.162E-09
C:/temp/dataset/test2/9_6.odb,Step-1,Increment      1: Step Time =    1.000,"PART-1-1",            29,           -3.,          22.5,            0.,NA,NA,"",       4.30866,      -4.28287,  -470.724E-03,   196.853E-09
C:/temp/dataset/test2/9_6.odb,Step-1,Increment      1: Step Time =    1.000,"PART-1-1",            30,           -5.,          22.5,            0.,NA,NA,"",       4.32469,      -4.27367,  -662.357E-03,   168.814E-09
C:/temp/dataset/test2/9_6.odb,Step-1,Increment      1: Step Time =    1.000,"PART-1-1",            31,            5.,        20.625,            0.,NA,NA,"",       4.15120,      -4.14002,   304.436E-03,   407.874E-09
C:/temp/dataset/test2/9_6.odb,Step-1,Increment      1: Step Time =    1.000,"PART-1-1",            32,            3.,        20.625,            0.,NA,NA,"",       4.13236,      -4.13082,   112.802E-03,   351.043E-09
C:/temp/dataset/test2/9_6.odb,Step-1,Increment      1: Step Time =    1.000,"PART-1-1",            33,            1.,        20.625,            0.,NA,NA,"",       4.12237,      -4.12162,  -78.8318E-03,   375.720E-09
C:/temp/dataset/test2/9_6.odb,Step-1,Increment      1: Step Time =    1.000,"PART-1-1",            34,           -1.,        20.625,            0.,NA,NA,"",       4.12130,      -4.11242,  -270.465E-03,   375.281E-09
C:/temp/dataset/test2/9_6.odb,Step-1,Increment      1: Step Time =    1.000,"PART-1-1",            35,           -3.,        20.625,            0.,NA,NA,"",       4.12915,      -4.10321,  -462.097E-03,   351.092E-09
C:/temp/dataset/test2/9_6.odb,Step-1,Increment      1: Step Time =    1.000,"PART-1-1",            36,           -5.,        20.625,            0.,NA,NA,"",       4.14588,      -4.09401,  -653.730E-03,   411.320E-09
C:/temp/dataset/test2/9_6.odb,Step-1,Increment      1: Step Time =    1.000,"PART-1-1",            37,            5.,         18.75,            0.,NA,NA,"",       3.97272,      -3.96037,   313.064E-03,   830.166E-09
C:/temp/dataset/test2/9_6.odb,Step-1,Increment      1: Step Time =    1.000,"PART-1-1",            38,            3.,         18.75,            0.,NA,NA,"",       3.95303,      -3.95116,   121.429E-03,   460.579E-09
C:/temp/dataset/test2/9_6.odb,Step-1,Increment      1: Step Time =    1.000,"PART-1-1",            39,            1.,         18.75,            0.,NA,NA,"",       3.94259,      -3.94196,  -70.2055E-03,   467.384E-09
C:/temp/dataset/test2/9_6.odb,Step-1,Increment      1: Step Time =    1.000,"PART-1-1",            40,           -1.,         18.75,            0.,NA,NA,"",       3.94147,      -3.93276,  -261.839E-03,   465.743E-09
C:/temp/dataset/test2/9_6.odb,Step-1,Increment      1: Step Time =    1.000,"PART-1-1",            41,           -3.,         18.75,            0.,NA,NA,"",       3.94968,      -3.92356,  -453.471E-03,   458.559E-09
C:/temp/dataset/test2/9_6.odb,Step-1,Increment      1: Step Time =    1.000,"PART-1-1",            42,           -5.,         18.75,            0.,NA,NA,"",       3.96716,      -3.91436,  -645.102E-03,   832.641E-09
C:/temp/dataset/test2/9_6.odb,Step-1,Increment      1: Step Time =    1.000,"PART-1-1",            43,            5.,        16.875,            0.,NA,NA,"",       3.79437,      -3.78071,   321.693E-03,   1.35342E-06
C:/temp/dataset/test2/9_6.odb,Step-1,Increment      1: Step Time =    1.000,"PART-1-1",            44,            3.,        16.875,            0.,NA,NA,"",       3.77375,      -3.77151,   130.056E-03,   269.582E-09
C:/temp/dataset/test2/9_6.odb,Step-1,Increment      1: Step Time =    1.000,"PART-1-1",            45,            1.,        16.875,            0.,NA,NA,"",       3.76281,      -3.76230,  -61.5790E-03,   661.055E-09
C:/temp/dataset/test2/9_6.odb,Step-1,Increment      1: Step Time =    1.000,"PART-1-1",            46,           -1.,        16.875,            0.,NA,NA,"",       3.76164,      -3.75310,  -253.212E-03,   659.429E-09
C:/temp/dataset/test2/9_6.odb,Step-1,Increment      1: Step Time =    1.000,"PART-1-1",            47,           -3.,        16.875,            0.,NA,NA,"",       3.77024,      -3.74390,  -444.844E-03,   266.567E-09
C:/temp/dataset/test2/9_6.odb,Step-1,Increment      1: Step Time =    1.000,"PART-1-1",            48,           -5.,        16.875,            0.,NA,NA,"",       3.78855,      -3.73470,  -636.474E-03,   1.34892E-06
C:/temp/dataset/test2/9_6.odb,Step-1,Increment      1: Step Time =    1.000,"PART-1-1",            49,            5.,           15.,            0.,NA,NA,"",       3.61617,      -3.60105,   330.323E-03,   1.41198E-06
C:/temp/dataset/test2/9_6.odb,Step-1,Increment      1: Step Time =    1.000,"PART-1-1",            50,            3.,           15.,            0.,NA,NA,"",       3.59452,      -3.59185,   138.683E-03,   1.80980E-06
C:/temp/dataset/test2/9_6.odb,Step-1,Increment      1: Step Time =    1.000,"PART-1-1",            51,            1.,           15.,            0.,NA,NA,"",       3.58304,      -3.58265,  -52.9509E-03,   3.01548E-06
C:/temp/dataset/test2/9_6.odb,Step-1,Increment      1: Step Time =    1.000,"PART-1-1",            52,           -1.,           15.,            0.,NA,NA,"",       3.58181,      -3.57345,  -244.585E-03,   3.01570E-06
C:/temp/dataset/test2/9_6.odb,Step-1,Increment      1: Step Time =    1.000,"PART-1-1",            53,           -3.,           15.,            0.,NA,NA,"",       3.59085,      -3.56425,  -436.217E-03,   1.82871E-06
C:/temp/dataset/test2/9_6.odb,Step-1,Increment      1: Step Time =    1.000,"PART-1-1",            54,           -5.,           15.,            0.,NA,NA,"",       3.61007,      -3.55505,  -627.845E-03,   1.38175E-06
C:/temp/dataset/test2/9_6.odb,Step-1,Increment      1: Step Time =    1.000,"PART-1-1",            55,            5.,        13.125,            0.,NA,NA,"",       3.43813,      -3.42138,   338.952E-03,   1.10163E-06
C:/temp/dataset/test2/9_6.odb,Step-1,Increment      1: Step Time =    1.000,"PART-1-1",            56,            3.,        13.125,            0.,NA,NA,"",       3.41535,      -3.41218,   147.311E-03,   7.61601E-06
C:/temp/dataset/test2/9_6.odb,Step-1,Increment      1: Step Time =    1.000,"PART-1-1",            57,            1.,        13.125,            0.,NA,NA,"",       3.40327,      -3.40299,  -44.3174E-03,   10.2183E-06
C:/temp/dataset/test2/9_6.odb,Step-1,Increment      1: Step Time =    1.000,"PART-1-1",            58,           -1.,        13.125,            0.,NA,NA,"",       3.40199,      -3.39380,  -235.952E-03,   10.1860E-06
C:/temp/dataset/test2/9_6.odb,Step-1,Increment      1: Step Time =    1.000,"PART-1-1",            59,           -3.,        13.125,            0.,NA,NA,"",       3.41151,      -3.38461,  -427.592E-03,   7.61350E-06
C:/temp/dataset/test2/9_6.odb,Step-1,Increment      1: Step Time =    1.000,"PART-1-1",            60,           -5.,        13.125,            0.,NA,NA,"",       3.43173,      -3.37541,  -619.218E-03,   1.17896E-06
C:/temp/dataset/test2/9_6.odb,Step-1,Increment      1: Step Time =    1.000,"PART-1-1",            61,            5.,         11.25,            0.,NA,NA,"",       3.26028,      -3.24170,   347.574E-03,   10.7803E-06
C:/temp/dataset/test2/9_6.odb,Step-1,Increment      1: Step Time =    1.000,"PART-1-1",            62,            3.,         11.25,            0.,NA,NA,"",       3.23625,      -3.23249,   155.940E-03,   22.1285E-06
C:/temp/dataset/test2/9_6.odb,Step-1,Increment      1: Step Time =    1.000,"PART-1-1",            63,            1.,         11.25,            0.,NA,NA,"",       3.22352,      -3.22332,  -35.6697E-03,   27.0601E-06
C:/temp/dataset/test2/9_6.odb,Step-1,Increment      1: Step Time =    1.000,"PART-1-1",            64,           -1.,         11.25,            0.,NA,NA,"",       3.22219,      -3.21416,  -227.307E-03,   26.8382E-06
C:/temp/dataset/test2/9_6.odb,Step-1,Increment      1: Step Time =    1.000,"PART-1-1",            65,           -3.,         11.25,            0.,NA,NA,"",       3.23225,      -3.20498,  -418.968E-03,   21.7726E-06
C:/temp/dataset/test2/9_6.odb,Step-1,Increment      1: Step Time =    1.000,"PART-1-1",            66,           -5.,         11.25,            0.,NA,NA,"",       3.25358,      -3.19577,  -610.600E-03,   10.8248E-06
C:/temp/dataset/test2/9_6.odb,Step-1,Increment      1: Step Time =    1.000,"PART-1-1",            67,            5.,         9.375,            0.,NA,NA,"",       3.08264,      -3.06200,   356.170E-03,   38.6650E-06
C:/temp/dataset/test2/9_6.odb,Step-1,Increment      1: Step Time =    1.000,"PART-1-1",            68,            3.,         9.375,            0.,NA,NA,"",       3.05722,      -3.05279,   164.571E-03,   52.7515E-06
C:/temp/dataset/test2/9_6.odb,Step-1,Increment      1: Step Time =    1.000,"PART-1-1",            69,            1.,         9.375,            0.,NA,NA,"",       3.04377,      -3.04365,  -26.9904E-03,   60.2061E-06
C:/temp/dataset/test2/9_6.odb,Step-1,Increment      1: Step Time =    1.000,"PART-1-1",            70,           -1.,         9.375,            0.,NA,NA,"",       3.04240,      -3.03453,  -218.634E-03,   58.8723E-06
C:/temp/dataset/test2/9_6.odb,Step-1,Increment      1: Step Time =    1.000,"PART-1-1",            71,           -3.,         9.375,            0.,NA,NA,"",       3.05307,      -3.02537,  -410.348E-03,   50.1176E-06
C:/temp/dataset/test2/9_6.odb,Step-1,Increment      1: Step Time =    1.000,"PART-1-1",            72,           -5.,         9.375,            0.,NA,NA,"",       3.07564,      -3.01615,  -602.012E-03,   37.8618E-06
C:/temp/dataset/test2/9_6.odb,Step-1,Increment      1: Step Time =    1.000,"PART-1-1",            73,            5.,           7.5,            0.,NA,NA,"",       2.90528,      -2.88230,   364.686E-03,   107.046E-06
C:/temp/dataset/test2/9_6.odb,Step-1,Increment      1: Step Time =    1.000,"PART-1-1",            74,            3.,           7.5,            0.,NA,NA,"",       2.87829,      -2.87307,   173.202E-03,   106.029E-06
C:/temp/dataset/test2/9_6.odb,Step-1,Increment      1: Step Time =    1.000,"PART-1-1",            75,            1.,           7.5,            0.,NA,NA,"",       2.86404,      -2.86398,  -18.2541E-03,   112.367E-06
C:/temp/dataset/test2/9_6.odb,Step-1,Increment      1: Step Time =    1.000,"PART-1-1",            76,           -1.,           7.5,            0.,NA,NA,"",       2.86262,      -2.85492,  -209.913E-03,   106.992E-06
C:/temp/dataset/test2/9_6.odb,Step-1,Increment      1: Step Time =    1.000,"PART-1-1",            77,           -3.,           7.5,            0.,NA,NA,"",       2.87399,      -2.84577,  -401.735E-03,   94.4548E-06
C:/temp/dataset/test2/9_6.odb,Step-1,Increment      1: Step Time =    1.000,"PART-1-1",            78,           -5.,           7.5,            0.,NA,NA,"",       2.89794,      -2.83651,  -593.492E-03,   98.0358E-06
C:/temp/dataset/test2/9_6.odb,Step-1,Increment      1: Step Time =    1.000,"PART-1-1",            79,            5.,         5.625,            0.,NA,NA,"",       2.72828,      -2.70265,   373.041E-03,   244.603E-06
C:/temp/dataset/test2/9_6.odb,Step-1,Increment      1: Step Time =    1.000,"PART-1-1",            80,            3.,         5.625,            0.,NA,NA,"",       2.69954,      -2.69341,   181.841E-03,   179.096E-06
C:/temp/dataset/test2/9_6.odb,Step-1,Increment      1: Step Time =    1.000,"PART-1-1",            81,            1.,         5.625,            0.,NA,NA,"",       2.68438,      -2.68436,  -9.43830E-03,   167.432E-06
C:/temp/dataset/test2/9_6.odb,Step-1,Increment      1: Step Time =    1.000,"PART-1-1",            82,           -1.,         5.625,            0.,NA,NA,"",       2.68284,      -2.67529,  -201.132E-03,   149.335E-06
C:/temp/dataset/test2/9_6.odb,Step-1,Increment      1: Step Time =    1.000,"PART-1-1",            83,           -3.,         5.625,            0.,NA,NA,"",       2.69494,      -2.66611,  -393.131E-03,   134.713E-06
C:/temp/dataset/test2/9_6.odb,Step-1,Increment      1: Step Time =    1.000,"PART-1-1",            84,           -5.,         5.625,            0.,NA,NA,"",       2.72045,      -2.65678,  -585.103E-03,   203.818E-06
C:/temp/dataset/test2/9_6.odb,Step-1,Increment      1: Step Time =    1.000,"PART-1-1",            85,            5.,          3.75,            0.,NA,NA,"",       2.55195,      -2.52335,   380.967E-03,   523.097E-06
C:/temp/dataset/test2/9_6.odb,Step-1,Increment      1: Step Time =    1.000,"PART-1-1",            86,            3.,          3.75,            0.,NA,NA,"",       2.52126,      -2.51405,   190.470E-03,   176.096E-06
C:/temp/dataset/test2/9_6.odb,Step-1,Increment      1: Step Time =    1.000,"PART-1-1",            87,            1.,          3.75,            0.,NA,NA,"",       2.50488,      -2.50488,  -594.170E-06,   197.720E-06
C:/temp/dataset/test2/9_6.odb,Step-1,Increment      1: Step Time =    1.000,"PART-1-1",            88,           -1.,          3.75,            0.,NA,NA,"",       2.50295,      -2.49555,  -192.343E-03,   144.483E-06
C:/temp/dataset/test2/9_6.odb,Step-1,Increment      1: Step Time =    1.000,"PART-1-1",            89,           -3.,          3.75,            0.,NA,NA,"",       2.51575,      -2.48619,  -384.532E-03,   103.694E-06
C:/temp/dataset/test2/9_6.odb,Step-1,Increment      1: Step Time =    1.000,"PART-1-1",            90,           -5.,          3.75,            0.,NA,NA,"",       2.54304,      -2.47674,  -576.900E-03,   334.593E-06
C:/temp/dataset/test2/9_6.odb,Step-1,Increment      1: Step Time =    1.000,"PART-1-1",            91,            5.,         1.875,            0.,NA,NA,"",       2.37714,      -2.34520,   388.381E-03,   1.18932E-03
C:/temp/dataset/test2/9_6.odb,Step-1,Increment      1: Step Time =    1.000,"PART-1-1",            92,            3.,         1.875,            0.,NA,NA,"",       2.34410,      -2.33562,   199.147E-03,   747.768E-06
C:/temp/dataset/test2/9_6.odb,Step-1,Increment      1: Step Time =    1.000,"PART-1-1",            93,            1.,         1.875,            0.,NA,NA,"",       2.32560,      -2.32559,   7.94222E-03,   709.596E-06
C:/temp/dataset/test2/9_6.odb,Step-1,Increment      1: Step Time =    1.000,"PART-1-1",            94,           -1.,         1.875,            0.,NA,NA,"",       2.32259,      -2.31532,  -183.718E-03,   510.115E-06
C:/temp/dataset/test2/9_6.odb,Step-1,Increment      1: Step Time =    1.000,"PART-1-1",            95,           -3.,         1.875,            0.,NA,NA,"",       2.33601,      -2.30557,  -375.893E-03,   230.237E-06
C:/temp/dataset/test2/9_6.odb,Step-1,Increment      1: Step Time =    1.000,"PART-1-1",            96,           -5.,         1.875,            0.,NA,NA,"",       2.36543,      -2.29602,  -568.829E-03,   378.955E-06
C:/temp/dataset/test2/9_6.odb,Step-1,Increment      1: Step Time =    1.000,"PART-1-1",            97,            5.,            0.,            0.,NA,NA,"",       2.20840,      -2.17298,   393.933E-03,   3.25182E-03
C:/temp/dataset/test2/9_6.odb,Step-1,Increment      1: Step Time =    1.000,"PART-1-1",            98,            3.,            0.,            0.,NA,NA,"",       2.16912,      -2.15929,   206.288E-03,   3.47551E-03
C:/temp/dataset/test2/9_6.odb,Step-1,Increment      1: Step Time =    1.000,"PART-1-1",            99,            1.,            0.,            0.,NA,NA,"",       2.14567,      -2.14562,   15.2808E-03,   2.25023E-03
C:/temp/dataset/test2/9_6.odb,Step-1,Increment      1: Step Time =    1.000,"PART-1-1",           100,           -1.,            0.,            0.,NA,NA,"",       2.14095,      -2.13375,  -175.475E-03,   1.56346E-03
C:/temp/dataset/test2/9_6.odb,Step-1,Increment      1: Step Time =    1.000,"PART-1-1",           101,           -3.,            0.,            0.,NA,NA,"",       2.15507,      -2.12359,  -367.016E-03,   935.209E-06
C:/temp/dataset/test2/9_6.odb,Step-1,Increment      1: Step Time =    1.000,"PART-1-1",           102,           -5.,            0.,            0.,NA,NA,"",       2.18718,      -2.11414,  -560.533E-03,   107.208E-06
C:/temp/dataset/test2/9_6.odb,Step-1,Increment      1: Step Time =    1.000,"PART-1-1",           103,            5.,        -1.875,            0.,NA,NA,"",       2.03789,      -1.99760,   403.221E-03,   6.38193E-03
C:/temp/dataset/test2/9_6.odb,Step-1,Increment      1: Step Time =    1.000,"PART-1-1",           104,            3.,        -1.875,            0.,NA,NA,"",       1.99017,      -1.97901,   210.442E-03,   6.46495E-03
C:/temp/dataset/test2/9_6.odb,Step-1,Increment      1: Step Time =    1.000,"PART-1-1",           105,            1.,        -1.875,            0.,NA,NA,"",       1.96244,      -1.96233,   21.1124E-03,   4.33341E-03
C:/temp/dataset/test2/9_6.odb,Step-1,Increment      1: Step Time =    1.000,"PART-1-1",           106,           -1.,        -1.875,            0.,NA,NA,"",       1.95687,      -1.94970,  -167.412E-03,   3.11626E-03
C:/temp/dataset/test2/9_6.odb,Step-1,Increment      1: Step Time =    1.000,"PART-1-1",           107,           -3.,        -1.875,            0.,NA,NA,"",       1.97236,      -1.93970,  -357.421E-03,   2.07547E-03
C:/temp/dataset/test2/9_6.odb,Step-1,Increment      1: Step Time =    1.000,"PART-1-1",           108,           -5.,        -1.875,            0.,NA,NA,"",       2.00797,      -1.93084,  -551.190E-03,   795.444E-06
C:/temp/dataset/test2/9_6.odb,Step-1,Increment      1: Step Time =    1.000,"PART-1-1",           109,            5.,         -3.75,            0.,NA,NA,"",       1.85159,      -1.80516,   412.027E-03,   4.45662E-03
C:/temp/dataset/test2/9_6.odb,Step-1,Increment      1: Step Time =    1.000,"PART-1-1",           110,            3.,         -3.75,            0.,NA,NA,"",       1.80145,      -1.78866,   214.285E-03,   6.92926E-03
C:/temp/dataset/test2/9_6.odb,Step-1,Increment      1: Step Time =    1.000,"PART-1-1",           111,            1.,         -3.75,            0.,NA,NA,"",       1.77464,      -1.77444,   26.9553E-03,   5.84750E-03
C:/temp/dataset/test2/9_6.odb,Step-1,Increment      1: Step Time =    1.000,"PART-1-1",           112,           -1.,         -3.75,            0.,NA,NA,"",       1.77019,      -1.76306,  -158.676E-03,   4.62433E-03
C:/temp/dataset/test2/9_6.odb,Step-1,Increment      1: Step Time =    1.000,"PART-1-1",           113,           -3.,         -3.75,            0.,NA,NA,"",       1.78806,      -1.75418,  -346.389E-03,   3.43288E-03
C:/temp/dataset/test2/9_6.odb,Step-1,Increment      1: Step Time =    1.000,"PART-1-1",           114,           -5.,         -3.75,            0.,NA,NA,"",       1.82804,      -1.74658,  -539.627E-03,   2.41996E-03
C:/temp/dataset/test2/9_6.odb,Step-1,Increment      1: Step Time =    1.000,"PART-1-1",           115,            5.,        -5.625,            0.,NA,NA,"",       1.66231,      -1.61010,   413.367E-03,   5.91945E-03
C:/temp/dataset/test2/9_6.odb,Step-1,Increment      1: Step Time =    1.000,"PART-1-1",           116,            3.,        -5.625,            0.,NA,NA,"",       1.61134,      -1.59637,   219.112E-03,   5.13065E-03
C:/temp/dataset/test2/9_6.odb,Step-1,Increment      1: Step Time =    1.000,"PART-1-1",           117,            1.,        -5.625,            0.,NA,NA,"",       1.58545,      -1.58508,   33.8994E-03,   6.13163E-03
C:/temp/dataset/test2/9_6.odb,Step-1,Increment      1: Step Time =    1.000,"PART-1-1",           118,           -1.,        -5.625,            0.,NA,NA,"",       1.58267,      -1.57568,  -148.605E-03,   5.60168E-03
C:/temp/dataset/test2/9_6.odb,Step-1,Increment      1: Step Time =    1.000,"PART-1-1",           119,           -3.,        -5.625,            0.,NA,NA,"",       1.60349,      -1.56847,  -333.317E-03,   4.76847E-03
C:/temp/dataset/test2/9_6.odb,Step-1,Increment      1: Step Time =    1.000,"PART-1-1",           120,           -5.,        -5.625,            0.,NA,NA,"",       1.64846,      -1.56271,  -524.757E-03,   4.65491E-03
C:/temp/dataset/test2/9_6.odb,Step-1,Increment      1: Step Time =    1.000,"PART-1-1",           121,            5.,          -7.5,            0.,NA,NA,"",       1.48209,      -1.42401,   410.810E-03,   8.11693E-03
C:/temp/dataset/test2/9_6.odb,Step-1,Increment      1: Step Time =    1.000,"PART-1-1",           122,            3.,          -7.5,            0.,NA,NA,"",       1.42680,      -1.40940,   222.163E-03,   5.83846E-03
C:/temp/dataset/test2/9_6.odb,Step-1,Increment      1: Step Time =    1.000,"PART-1-1",           123,            1.,          -7.5,            0.,NA,NA,"",       1.39900,      -1.39840,   40.9713E-03,   5.97042E-03
C:/temp/dataset/test2/9_6.odb,Step-1,Increment      1: Step Time =    1.000,"PART-1-1",           124,           -1.,          -7.5,            0.,NA,NA,"",       1.39707,      -1.39030,  -137.383E-03,   6.04026E-03
C:/temp/dataset/test2/9_6.odb,Step-1,Increment      1: Step Time =    1.000,"PART-1-1",           125,           -3.,          -7.5,            0.,NA,NA,"",       1.42079,      -1.38475,  -317.997E-03,   6.01603E-03
C:/temp/dataset/test2/9_6.odb,Step-1,Increment      1: Step Time =    1.000,"PART-1-1",           126,           -5.,          -7.5,            0.,NA,NA,"",       1.47095,      -1.38119,  -505.969E-03,   7.21874E-03
C:/temp/dataset/test2/9_6.odb,Step-1,Increment      1: Step Time =    1.000,"PART-1-1",           127,            5.,        -9.375,            0.,NA,NA,"",       1.30750,      -1.24358,   403.810E-03,   10.3938E-03
C:/temp/dataset/test2/9_6.odb,Step-1,Increment      1: Step Time =    1.000,"PART-1-1",           128,            3.,        -9.375,            0.,NA,NA,"",       1.24780,      -1.22790,   221.952E-03,   7.12794E-03
C:/temp/dataset/test2/9_6.odb,Step-1,Increment      1: Step Time =    1.000,"PART-1-1",           129,            1.,        -9.375,            0.,NA,NA,"",       1.21756,      -1.21666,   46.9721E-03,   6.02485E-03
C:/temp/dataset/test2/9_6.odb,Step-1,Increment      1: Step Time =    1.000,"PART-1-1",           130,           -1.,        -9.375,            0.,NA,NA,"",       1.21579,      -1.20929,  -125.544E-03,   6.22718E-03
C:/temp/dataset/test2/9_6.odb,Step-1,Increment      1: Step Time =    1.000,"PART-1-1",           131,           -3.,        -9.375,            0.,NA,NA,"",       1.24219,      -1.20529,  -300.517E-03,   7.24905E-03
C:/temp/dataset/test2/9_6.odb,Step-1,Increment      1: Step Time =    1.000,"PART-1-1",           132,           -5.,        -9.375,            0.,NA,NA,"",       1.29744,      -1.20412,  -483.146E-03,   9.87113E-03
C:/temp/dataset/test2/9_6.odb,Step-1,Increment      1: Step Time =    1.000,"PART-1-1",           133,            5.,        -11.25,            0.,NA,NA,"",       1.13930,      -1.06963,   392.302E-03,   12.7968E-03
C:/temp/dataset/test2/9_6.odb,Step-1,Increment      1: Step Time =    1.000,"PART-1-1",           134,            3.,        -11.25,            0.,NA,NA,"",       1.07532,      -1.05289,   218.513E-03,   8.52137E-03
C:/temp/dataset/test2/9_6.odb,Step-1,Increment      1: Step Time =    1.000,"PART-1-1",           135,            1.,        -11.25,            0.,NA,NA,"",       1.04261,      -1.04135,   51.4305E-03,   6.23290E-03
C:/temp/dataset/test2/9_6.odb,Step-1,Increment      1: Step Time =    1.000,"PART-1-1",           136,           -1.,        -11.25,            0.,NA,NA,"",       1.04078,      -1.03457,  -113.474E-03,   6.36813E-03
C:/temp/dataset/test2/9_6.odb,Step-1,Increment      1: Step Time =    1.000,"PART-1-1",           137,           -3.,        -11.25,            0.,NA,NA,"",       1.06968,      -1.03209,  -281.059E-03,   8.52859E-03
C:/temp/dataset/test2/9_6.odb,Step-1,Increment      1: Step Time =    1.000,"PART-1-1",           138,           -5.,        -11.25,            0.,NA,NA,"",       1.12977,      -1.03346,  -456.440E-03,   12.4987E-03
C:/temp/dataset/test2/9_6.odb,Step-1,Increment      1: Step Time =    1.000,"PART-1-1",           139,            5.,       -13.125,            0.,NA,NA,"",   978.558E-03,  -903.458E-03,   375.951E-03,   15.2713E-03
C:/temp/dataset/test2/9_6.odb,Step-1,Increment      1: Step Time =    1.000,"PART-1-1",           140,            3.,       -13.125,            0.,NA,NA,"",   910.692E-03,  -885.734E-03,   211.745E-03,   9.94402E-03
C:/temp/dataset/test2/9_6.odb,Step-1,Increment      1: Step Time =    1.000,"PART-1-1",           141,            1.,       -13.125,            0.,NA,NA,"",   875.648E-03,  -873.970E-03,   54.1837E-03,   6.50044E-03
C:/temp/dataset/test2/9_6.odb,Step-1,Increment      1: Step Time =    1.000,"PART-1-1",           142,           -1.,       -13.125,            0.,NA,NA,"",   873.732E-03,  -867.830E-03,  -101.378E-03,   6.53604E-03
C:/temp/dataset/test2/9_6.odb,Step-1,Increment      1: Step Time =    1.000,"PART-1-1",           143,           -3.,       -13.125,            0.,NA,NA,"",   905.022E-03,  -866.936E-03,  -259.783E-03,   9.86317E-03
C:/temp/dataset/test2/9_6.odb,Step-1,Increment      1: Step Time =    1.000,"PART-1-1",           144,           -5.,       -13.125,            0.,NA,NA,"",   969.557E-03,  -870.926E-03,  -426.063E-03,   15.0797E-03
C:/temp/dataset/test2/9_6.odb,Step-1,Increment      1: Step Time =    1.000,"PART-1-1",           145,            5.,          -15.,            0.,NA,NA,"",   826.574E-03,  -746.657E-03,   354.582E-03,   17.7874E-03
C:/temp/dataset/test2/9_6.odb,Step-1,Increment      1: Step Time =    1.000,"PART-1-1",           146,            3.,          -15.,            0.,NA,NA,"",   755.399E-03,  -728.012E-03,   201.560E-03,   11.3917E-03
C:/temp/dataset/test2/9_6.odb,Step-1,Increment      1: Step Time =    1.000,"PART-1-1",           147,            1.,          -15.,            0.,NA,NA,"",   718.222E-03,  -716.101E-03,   55.1507E-03,   6.79569E-03
C:/temp/dataset/test2/9_6.odb,Step-1,Increment      1: Step Time =    1.000,"PART-1-1",           148,           -1.,          -15.,            0.,NA,NA,"",   716.266E-03,  -710.671E-03,  -89.3572E-03,   6.74281E-03
C:/temp/dataset/test2/9_6.odb,Step-1,Increment      1: Step Time =    1.000,"PART-1-1",           149,           -3.,          -15.,            0.,NA,NA,"",   749.818E-03,  -711.441E-03,  -236.808E-03,   11.2402E-03
C:/temp/dataset/test2/9_6.odb,Step-1,Increment      1: Step Time =    1.000,"PART-1-1",           150,           -5.,          -15.,            0.,NA,NA,"",   818.252E-03,  -718.139E-03,  -392.188E-03,   17.6265E-03
C:/temp/dataset/test2/9_6.odb,Step-1,Increment      1: Step Time =    1.000,"PART-1-1",           151,            5.,       -16.875,            0.,NA,NA,"",   684.597E-03,  -600.872E-03,   328.063E-03,   20.3229E-03
C:/temp/dataset/test2/9_6.odb,Step-1,Increment      1: Step Time =    1.000,"PART-1-1",           152,            3.,       -16.875,            0.,NA,NA,"",   610.958E-03,  -581.355E-03,   187.874E-03,   12.8598E-03
C:/temp/dataset/test2/9_6.odb,Step-1,Increment      1: Step Time =    1.000,"PART-1-1",           153,            1.,       -16.875,            0.,NA,NA,"",   571.930E-03,  -569.349E-03,   54.2709E-03,   7.11314E-03
C:/temp/dataset/test2/9_6.odb,Step-1,Increment      1: Step Time =    1.000,"PART-1-1",           154,           -1.,       -16.875,            0.,NA,NA,"",   569.974E-03,  -564.684E-03,  -77.4761E-03,   6.98351E-03
C:/temp/dataset/test2/9_6.odb,Step-1,Increment      1: Step Time =    1.000,"PART-1-1",           155,           -3.,       -16.875,            0.,NA,NA,"",   605.579E-03,  -567.177E-03,  -212.219E-03,   12.6442E-03
C:/temp/dataset/test2/9_6.odb,Step-1,Increment      1: Step Time =    1.000,"PART-1-1",           156,           -5.,       -16.875,            0.,NA,NA,"",   677.120E-03,  -576.641E-03,  -354.932E-03,   20.1555E-03
C:/temp/dataset/test2/9_6.odb,Step-1,Increment      1: Step Time =    1.000,"PART-1-1",           157,            5.,        -18.75,            0.,NA,NA,"",   553.747E-03,  -467.788E-03,   296.328E-03,   22.8630E-03
C:/temp/dataset/test2/9_6.odb,Step-1,Increment      1: Step Time =    1.000,"PART-1-1",           158,            3.,        -18.75,            0.,NA,NA,"",   478.852E-03,  -447.421E-03,   170.627E-03,   14.3461E-03
C:/temp/dataset/test2/9_6.odb,Step-1,Increment      1: Step Time =    1.000,"PART-1-1",           159,            1.,        -18.75,            0.,NA,NA,"",   438.369E-03,  -435.333E-03,   51.5011E-03,   7.45570E-03
C:/temp/dataset/test2/9_6.odb,Step-1,Increment      1: Step Time =    1.000,"PART-1-1",           160,           -1.,        -18.75,            0.,NA,NA,"",   436.435E-03,  -431.450E-03,  -65.7757E-03,   7.25137E-03
C:/temp/dataset/test2/9_6.odb,Step-1,Increment      1: Step Time =    1.000,"PART-1-1",           161,           -3.,        -18.75,            0.,NA,NA,"",   473.757E-03,  -435.689E-03,  -186.067E-03,   14.0655E-03
C:/temp/dataset/test2/9_6.odb,Step-1,Increment      1: Step Time =    1.000,"PART-1-1",           162,           -5.,        -18.75,            0.,NA,NA,"",   547.245E-03,  -447.948E-03,  -314.357E-03,   22.6759E-03
C:/temp/dataset/test2/9_6.odb,Step-1,Increment      1: Step Time =    1.000,"PART-1-1",           163,            5.,       -20.625,            0.,NA,NA,"",   434.910E-03,  -349.115E-03,   259.355E-03,   25.4024E-03
C:/temp/dataset/test2/9_6.odb,Step-1,Increment      1: Step Time =    1.000,"PART-1-1",           164,            3.,       -20.625,            0.,NA,NA,"",   360.482E-03,  -327.884E-03,   149.798E-03,   15.8458E-03
C:/temp/dataset/test2/9_6.odb,Step-1,Increment      1: Step Time =    1.000,"PART-1-1",           165,            1.,       -20.625,            0.,NA,NA,"",   319.128E-03,  -315.676E-03,   46.8145E-03,   7.83696E-03
C:/temp/dataset/test2/9_6.odb,Step-1,Increment      1: Step Time =    1.000,"PART-1-1",           166,           -1.,       -20.625,            0.,NA,NA,"",   317.226E-03,  -312.549E-03,  -54.2687E-03,   7.55005E-03
C:/temp/dataset/test2/9_6.odb,Step-1,Increment      1: Step Time =    1.000,"PART-1-1",           167,           -3.,       -20.625,            0.,NA,NA,"",   355.726E-03,  -318.527E-03,  -158.370E-03,   15.4966E-03
C:/temp/dataset/test2/9_6.odb,Step-1,Increment      1: Step Time =    1.000,"PART-1-1",           168,           -5.,       -20.625,            0.,NA,NA,"",   429.455E-03,  -333.578E-03,  -270.477E-03,   25.1984E-03
C:/temp/dataset/test2/9_6.odb,Step-1,Increment      1: Step Time =    1.000,"PART-1-1",           169,            5.,         -22.5,            0.,NA,NA,"",   328.579E-03,  -246.542E-03,   217.212E-03,   27.8772E-03
C:/temp/dataset/test2/9_6.odb,Step-1,Increment      1: Step Time =    1.000,"PART-1-1",           170,            3.,         -22.5,            0.,NA,NA,"",   257.042E-03,  -224.402E-03,   125.358E-03,   17.3852E-03
C:/temp/dataset/test2/9_6.odb,Step-1,Increment      1: Step Time =    1.000,"PART-1-1",           171,            1.,         -22.5,            0.,NA,NA,"",   215.738E-03,  -211.961E-03,   40.1936E-03,   8.26911E-03
C:/temp/dataset/test2/9_6.odb,Step-1,Increment      1: Step Time =    1.000,"PART-1-1",           172,           -1.,         -22.5,            0.,NA,NA,"",   213.875E-03,  -209.526E-03,  -42.9098E-03,   7.88749E-03
C:/temp/dataset/test2/9_6.odb,Step-1,Increment      1: Step Time =    1.000,"PART-1-1",           173,           -3.,         -22.5,            0.,NA,NA,"",   252.682E-03,  -217.231E-03,  -129.070E-03,   16.9603E-03
C:/temp/dataset/test2/9_6.odb,Step-1,Increment      1: Step Time =    1.000,"PART-1-1",           174,           -5.,         -22.5,            0.,NA,NA,"",   324.185E-03,  -235.019E-03,  -223.298E-03,   27.6733E-03
C:/temp/dataset/test2/9_6.odb,Step-1,Increment      1: Step Time =    1.000,"PART-1-1",           175,            5.,       -24.375,            0.,NA,NA,"",   234.745E-03,  -161.830E-03,   170.048E-03,   30.3571E-03
C:/temp/dataset/test2/9_6.odb,Step-1,Increment      1: Step Time =    1.000,"PART-1-1",           176,            3.,       -24.375,            0.,NA,NA,"",   169.461E-03,  -138.660E-03,   97.4189E-03,   18.9402E-03
C:/temp/dataset/test2/9_6.odb,Step-1,Increment      1: Step Time =    1.000,"PART-1-1",           177,            1.,       -24.375,            0.,NA,NA,"",   129.757E-03,  -125.829E-03,   31.6872E-03,   8.89555E-03
C:/temp/dataset/test2/9_6.odb,Step-1,Increment      1: Step Time =    1.000,"PART-1-1",           178,           -1.,       -24.375,            0.,NA,NA,"",   127.970E-03,  -123.993E-03,  -31.6545E-03,   8.40439E-03
C:/temp/dataset/test2/9_6.odb,Step-1,Increment      1: Step Time =    1.000,"PART-1-1",           179,           -3.,       -24.375,            0.,NA,NA,"",   165.615E-03,  -133.397E-03,  -98.1500E-03,   18.4374E-03
C:/temp/dataset/test2/9_6.odb,Step-1,Increment      1: Step Time =    1.000,"PART-1-1",           180,           -5.,       -24.375,            0.,NA,NA,"",   231.371E-03,  -153.881E-03,  -172.781E-03,   30.1815E-03
C:/temp/dataset/test2/9_6.odb,Step-1,Increment      1: Step Time =    1.000,"PART-1-1",           181,            5.,        -26.25,            0.,NA,NA,"",   152.405E-03,  -95.8232E-03,   118.512E-03,   31.9748E-03
C:/temp/dataset/test2/9_6.odb,Step-1,Increment      1: Step Time =    1.000,"PART-1-1",           182,            3.,        -26.25,            0.,NA,NA,"",   97.2123E-03,  -71.8555E-03,   65.4752E-03,   21.0854E-03
C:/temp/dataset/test2/9_6.odb,Step-1,Increment      1: Step Time =    1.000,"PART-1-1",           183,            1.,        -26.25,            0.,NA,NA,"",   62.5539E-03,  -58.8683E-03,   21.1547E-03,   9.23890E-03
C:/temp/dataset/test2/9_6.odb,Step-1,Increment      1: Step Time =    1.000,"PART-1-1",           184,           -1.,        -26.25,            0.,NA,NA,"",   60.9531E-03,  -57.5400E-03,  -20.1103E-03,   8.61763E-03
C:/temp/dataset/test2/9_6.odb,Step-1,Increment      1: Step Time =    1.000,"PART-1-1",           185,           -3.,        -26.25,            0.,NA,NA,"",   94.1223E-03,  -68.2229E-03,  -64.8432E-03,   20.5373E-03
C:/temp/dataset/test2/9_6.odb,Step-1,Increment      1: Step Time =    1.000,"PART-1-1",           186,           -5.,        -26.25,            0.,NA,NA,"",   149.985E-03,  -90.8273E-03,  -119.356E-03,   31.8289E-03
C:/temp/dataset/test2/9_6.odb,Step-1,Increment      1: Step Time =    1.000,"PART-1-1",           187,            5.,       -28.125,            0.,NA,NA,"",   79.9396E-03,  -48.0837E-03,   63.8616E-03,   36.3040E-03
C:/temp/dataset/test2/9_6.odb,Step-1,Increment      1: Step Time =    1.000,"PART-1-1",           188,            3.,       -28.125,            0.,NA,NA,"",   41.0570E-03,  -25.6511E-03,   32.0578E-03,   22.5672E-03
C:/temp/dataset/test2/9_6.odb,Step-1,Increment      1: Step Time =    1.000,"PART-1-1",           189,            1.,       -28.125,            0.,NA,NA,"",   17.2497E-03,  -14.1750E-03,   9.82968E-03,   8.61651E-03
C:/temp/dataset/test2/9_6.odb,Step-1,Increment      1: Step Time =    1.000,"PART-1-1",           190,           -1.,       -28.125,            0.,NA,NA,"",   16.1890E-03,  -13.3642E-03,  -9.13683E-03,   8.04148E-03
C:/temp/dataset/test2/9_6.odb,Step-1,Increment      1: Step Time =    1.000,"PART-1-1",           191,           -3.,       -28.125,            0.,NA,NA,"",   39.2575E-03,  -23.4927E-03,  -31.4523E-03,   21.9005E-03
C:/temp/dataset/test2/9_6.odb,Step-1,Increment      1: Step Time =    1.000,"PART-1-1",           192,           -5.,       -28.125,            0.,NA,NA,"",   78.3291E-03,  -45.5691E-03,  -63.7095E-03,   36.3902E-03
C:/temp/dataset/test2/9_6.odb,Step-1,Increment      1: Step Time =    1.000,"PART-1-1",           193,            5.,          -30.,            0.,NA,NA,"",            0.,  -10.8669E-39,   19.4442E-39,   46.4567E-03
C:/temp/dataset/test2/9_6.odb,Step-1,Increment      1: Step Time =    1.000,"PART-1-1",           194,            3.,          -30.,            0.,NA,NA,"",            0.,  -12.9540E-39,   32.0910E-39,   15.4608E-03
C:/temp/dataset/test2/9_6.odb,Step-1,Increment      1: Step Time =    1.000,"PART-1-1",           195,            1.,          -30.,            0.,NA,NA,"",            0.,  -978.040E-42,   9.88154E-39,   5.92931E-03
C:/temp/dataset/test2/9_6.odb,Step-1,Increment      1: Step Time =    1.000,"PART-1-1",           196,           -1.,          -30.,            0.,NA,NA,"",            0.,   5.50246E-39,  -9.94446E-39,   5.83798E-03
C:/temp/dataset/test2/9_6.odb,Step-1,Increment      1: Step Time =    1.000,"PART-1-1",           197,           -3.,          -30.,            0.,NA,NA,"",            0.,  -4.09623E-39,  -30.3072E-39,   15.0455E-03
C:/temp/dataset/test2/9_6.odb,Step-1,Increment      1: Step Time =    1.000,"PART-1-1",           198,           -5.,          -30.,            0.,NA,NA,"",            0.,  -10.3863E-39,  -18.7925E-39,   45.4783E-03
C:/temp/dataset/test2/9_6.odb,Step-1,Increment      1: Step Time =    1.000,"PART-1-1",           199,            4.,           30.,            0.,NA,NA,"",       5.03642,      -5.03370,   165.484E-03,   4.03919E-09
C:/temp/dataset/test2/9_6.odb,Step-1,Increment      1: Step Time =    1.000,"PART-1-1",           200,            3.,       29.0625,            0.,NA,NA,"",       4.93983,      -4.93927,   73.9812E-03,   4.14066E-09
C:/temp/dataset/test2/9_6.odb,Step-1,Increment      1: Step Time =    1.000,"PART-1-1",           201,            4.,        28.125,            0.,NA,NA,"",       4.85717,      -4.85405,   174.111E-03,   4.17239E-09
C:/temp/dataset/test2/9_6.odb,Step-1,Increment      1: Step Time =    1.000,"PART-1-1",           202,            5.,       29.0625,            0.,NA,NA,"",       4.95560,      -4.94847,   265.614E-03,   4.21653E-09
C:/temp/dataset/test2/9_6.odb,Step-1,Increment      1: Step Time =    1.000,"PART-1-1",           203,            2.,           30.,            0.,NA,NA,"",       5.02457,      -5.02450,  -26.1488E-03,   3.24796E-09
C:/temp/dataset/test2/9_6.odb,Step-1,Increment      1: Step Time =    1.000,"PART-1-1",           204,            1.,       29.0625,            0.,NA,NA,"",       4.93147,      -4.93007,  -117.652E-03,   9.12465E-09
C:/temp/dataset/test2/9_6.odb,Step-1,Increment      1: Step Time =    1.000,"PART-1-1",           205,            2.,        28.125,            0.,NA,NA,"",       4.84488,      -4.84484,  -17.5219E-03,   11.0495E-09
C:/temp/dataset/test2/9_6.odb,Step-1,Increment      1: Step Time =    1.000,"PART-1-1",           206,            0.,           30.,            0.,NA,NA,"",       5.02002,      -5.01530,  -217.782E-03,   3.79913E-09
C:/temp/dataset/test2/9_6.odb,Step-1,Increment      1: Step Time =    1.000,"PART-1-1",           207,           -1.,       29.0625,            0.,NA,NA,"",       4.93058,      -4.92087,  -309.285E-03,   9.33603E-09
C:/temp/dataset/test2/9_6.odb,Step-1,Increment      1: Step Time =    1.000,"PART-1-1",           208,            0.,        28.125,            0.,NA,NA,"",       4.84016,      -4.83564,  -209.155E-03,   13.5859E-09
C:/temp/dataset/test2/9_6.odb,Step-1,Increment      1: Step Time =    1.000,"PART-1-1",           209,           -2.,           30.,            0.,NA,NA,"",       5.02281,      -5.00610,  -409.415E-03,   3.20495E-09
C:/temp/dataset/test2/9_6.odb,Step-1,Increment      1: Step Time =    1.000,"PART-1-1",           210,           -3.,       29.0625,            0.,NA,NA,"",       4.93714,      -4.91167,  -500.918E-03,   4.78266E-09
C:/temp/dataset/test2/9_6.odb,Step-1,Increment      1: Step Time =    1.000,"PART-1-1",           211,           -2.,        28.125,            0.,NA,NA,"",       4.84305,      -4.82644,  -400.788E-03,   11.6600E-09
C:/temp/dataset/test2/9_6.odb,Step-1,Increment      1: Step Time =    1.000,"PART-1-1",           212,           -4.,           30.,            0.,NA,NA,"",       5.03291,      -4.99689,  -601.049E-03,   4.33611E-09
C:/temp/dataset/test2/9_6.odb,Step-1,Increment      1: Step Time =    1.000,"PART-1-1",           213,           -5.,       29.0625,            0.,NA,NA,"",       4.95114,      -4.90246,  -692.552E-03,   3.93610E-09
C:/temp/dataset/test2/9_6.odb,Step-1,Increment      1: Step Time =    1.000,"PART-1-1",           214,           -4.,        28.125,            0.,NA,NA,"",       4.85353,      -4.81724,  -592.422E-03,   3.78567E-09
C:/temp/dataset/test2/9_6.odb,Step-1,Increment      1: Step Time =    1.000,"PART-1-1",           215,            3.,       27.1875,            0.,NA,NA,"",       4.76033,      -4.75962,   82.6081E-03,   20.6490E-09
C:/temp/dataset/test2/9_6.odb,Step-1,Increment      1: Step Time =    1.000,"PART-1-1",           216,            4.,         26.25,            0.,NA,NA,"",       4.67796,      -4.67439,   182.738E-03,   17.9158E-09
C:/temp/dataset/test2/9_6.odb,Step-1,Increment      1: Step Time =    1.000,"PART-1-1",           217,            5.,       27.1875,            0.,NA,NA,"",       4.77670,      -4.76882,   274.241E-03,   5.47398E-09
C:/temp/dataset/test2/9_6.odb,Step-1,Increment      1: Step Time =    1.000,"PART-1-1",           218,            1.,       27.1875,            0.,NA,NA,"",       4.75167,      -4.75041,  -109.025E-03,   29.5093E-09
C:/temp/dataset/test2/9_6.odb,Step-1,Increment      1: Step Time =    1.000,"PART-1-1",           219,            2.,         26.25,            0.,NA,NA,"",       4.66520,      -4.66519,  -8.89509E-03,   35.5320E-09
C:/temp/dataset/test2/9_6.odb,Step-1,Increment      1: Step Time =    1.000,"PART-1-1",           220,           -1.,       27.1875,            0.,NA,NA,"",       4.75074,      -4.74121,  -300.658E-03,   29.9490E-09
C:/temp/dataset/test2/9_6.odb,Step-1,Increment      1: Step Time =    1.000,"PART-1-1",           221,            0.,         26.25,            0.,NA,NA,"",       4.66030,      -4.65599,  -200.528E-03,   41.0330E-09
C:/temp/dataset/test2/9_6.odb,Step-1,Increment      1: Step Time =    1.000,"PART-1-1",           222,           -3.,       27.1875,            0.,NA,NA,"",       4.75755,      -4.73201,  -492.292E-03,   21.1449E-09
C:/temp/dataset/test2/9_6.odb,Step-1,Increment      1: Step Time =    1.000,"PART-1-1",           223,           -2.,         26.25,            0.,NA,NA,"",       4.66330,      -4.64678,  -392.162E-03,   35.9910E-09
C:/temp/dataset/test2/9_6.odb,Step-1,Increment      1: Step Time =    1.000,"PART-1-1",           224,           -5.,       27.1875,            0.,NA,NA,"",       4.77207,      -4.72281,  -683.925E-03,   6.30623E-09
C:/temp/dataset/test2/9_6.odb,Step-1,Increment      1: Step Time =    1.000,"PART-1-1",           225,           -4.,         26.25,            0.,NA,NA,"",       4.67418,      -4.63758,  -583.795E-03,   18.3292E-09
C:/temp/dataset/test2/9_6.odb,Step-1,Increment      1: Step Time =    1.000,"PART-1-1",           226,            3.,       25.3125,            0.,NA,NA,"",       4.58087,      -4.57996,   91.2350E-03,   61.2504E-09
C:/temp/dataset/test2/9_6.odb,Step-1,Increment      1: Step Time =    1.000,"PART-1-1",           227,            4.,        24.375,            0.,NA,NA,"",       4.49881,      -4.49473,   191.365E-03,   56.9922E-09
C:/temp/dataset/test2/9_6.odb,Step-1,Increment      1: Step Time =    1.000,"PART-1-1",           228,            5.,       25.3125,            0.,NA,NA,"",       4.59787,      -4.58916,   282.868E-03,   31.6552E-09
C:/temp/dataset/test2/9_6.odb,Step-1,Increment      1: Step Time =    1.000,"PART-1-1",           229,            1.,       25.3125,            0.,NA,NA,"",       4.57186,      -4.57076,  -100.398E-03,   76.2412E-09
C:/temp/dataset/test2/9_6.odb,Step-1,Increment      1: Step Time =    1.000,"PART-1-1",           230,            2.,        24.375,            0.,NA,NA,"",       4.48553,      -4.48553,  -268.280E-06,   89.3832E-09
C:/temp/dataset/test2/9_6.odb,Step-1,Increment      1: Step Time =    1.000,"PART-1-1",           231,           -1.,       25.3125,            0.,NA,NA,"",       4.57089,      -4.56156,  -292.032E-03,   76.5458E-09
C:/temp/dataset/test2/9_6.odb,Step-1,Increment      1: Step Time =    1.000,"PART-1-1",           232,            0.,        24.375,            0.,NA,NA,"",       4.48044,      -4.47633,  -191.902E-03,   99.3668E-09
C:/temp/dataset/test2/9_6.odb,Step-1,Increment      1: Step Time =    1.000,"PART-1-1",           233,           -3.,       25.3125,            0.,NA,NA,"",       4.57798,      -4.55235,  -483.665E-03,   61.8187E-09
C:/temp/dataset/test2/9_6.odb,Step-1,Increment      1: Step Time =    1.000,"PART-1-1",           234,           -2.,        24.375,            0.,NA,NA,"",       4.48356,      -4.46713,  -383.535E-03,   89.6694E-09
C:/temp/dataset/test2/9_6.odb,Step-1,Increment      1: Step Time =    1.000,"PART-1-1",           235,           -5.,       25.3125,            0.,NA,NA,"",       4.59307,      -4.54315,  -675.298E-03,   33.4950E-09
C:/temp/dataset/test2/9_6.odb,Step-1,Increment      1: Step Time =    1.000,"PART-1-1",           236,           -4.,        24.375,            0.,NA,NA,"",       4.49488,      -4.45793,  -575.168E-03,   58.0085E-09
C:/temp/dataset/test2/9_6.odb,Step-1,Increment      1: Step Time =    1.000,"PART-1-1",           237,            3.,       23.4375,            0.,NA,NA,"",       4.40144,      -4.40030,   99.8618E-03,   141.699E-09
C:/temp/dataset/test2/9_6.odb,Step-1,Increment      1: Step Time =    1.000,"PART-1-1",           238,            4.,          22.5,            0.,NA,NA,"",       4.31971,      -4.31508,   199.992E-03,   142.762E-09
C:/temp/dataset/test2/9_6.odb,Step-1,Increment      1: Step Time =    1.000,"PART-1-1",           239,            5.,       23.4375,            0.,NA,NA,"",       4.41913,      -4.40951,   291.495E-03,   109.548E-09
C:/temp/dataset/test2/9_6.odb,Step-1,Increment      1: Step Time =    1.000,"PART-1-1",           240,            1.,       23.4375,            0.,NA,NA,"",       4.39206,      -4.39110,  -91.7716E-03,   164.337E-09
C:/temp/dataset/test2/9_6.odb,Step-1,Increment      1: Step Time =    1.000,"PART-1-1",           241,            2.,          22.5,            0.,NA,NA,"",       4.30588,      -4.30588,   8.35847E-03,   185.614E-09
C:/temp/dataset/test2/9_6.odb,Step-1,Increment      1: Step Time =    1.000,"PART-1-1",           242,           -1.,       23.4375,            0.,NA,NA,"",       4.39106,      -4.38190,  -283.405E-03,   164.429E-09
C:/temp/dataset/test2/9_6.odb,Step-1,Increment      1: Step Time =    1.000,"PART-1-1",           243,            0.,          22.5,            0.,NA,NA,"",       4.30058,      -4.29667,  -183.275E-03,   202.827E-09
C:/temp/dataset/test2/9_6.odb,Step-1,Increment      1: Step Time =    1.000,"PART-1-1",           244,           -3.,       23.4375,            0.,NA,NA,"",       4.39843,      -4.37270,  -475.038E-03,   142.261E-09
C:/temp/dataset/test2/9_6.odb,Step-1,Increment      1: Step Time =    1.000,"PART-1-1",           245,           -2.,          22.5,            0.,NA,NA,"",       4.30383,      -4.28747,  -374.908E-03,   185.667E-09
C:/temp/dataset/test2/9_6.odb,Step-1,Increment      1: Step Time =    1.000,"PART-1-1",           246,           -5.,       23.4375,            0.,NA,NA,"",       4.41413,      -4.36350,  -666.671E-03,   112.118E-09
C:/temp/dataset/test2/9_6.odb,Step-1,Increment      1: Step Time =    1.000,"PART-1-1",           247,           -4.,          22.5,            0.,NA,NA,"",       4.31562,      -4.27827,  -566.541E-03,   144.311E-09
C:/temp/dataset/test2/9_6.odb,Step-1,Increment      1: Step Time =    1.000,"PART-1-1",           248,            3.,       21.5625,            0.,NA,NA,"",       4.22204,      -4.22065,   108.489E-03,   269.295E-09
C:/temp/dataset/test2/9_6.odb,Step-1,Increment      1: Step Time =    1.000,"PART-1-1",           249,            4.,        20.625,            0.,NA,NA,"",       4.14068,      -4.13542,   208.619E-03,   298.048E-09
C:/temp/dataset/test2/9_6.odb,Step-1,Increment      1: Step Time =    1.000,"PART-1-1",           250,            5.,       21.5625,            0.,NA,NA,"",       4.24048,      -4.22985,   300.122E-03,   285.091E-09
C:/temp/dataset/test2/9_6.odb,Step-1,Increment      1: Step Time =    1.000,"PART-1-1",           251,            1.,       21.5625,            0.,NA,NA,"",       4.21227,      -4.21145,  -83.1450E-03,   294.088E-09
C:/temp/dataset/test2/9_6.odb,Step-1,Increment      1: Step Time =    1.000,"PART-1-1",           252,            2.,        20.625,            0.,NA,NA,"",       4.12625,      -4.12622,   16.9851E-03,   313.406E-09
C:/temp/dataset/test2/9_6.odb,Step-1,Increment      1: Step Time =    1.000,"PART-1-1",           253,           -1.,       21.5625,            0.,NA,NA,"",       4.21122,      -4.20224,  -274.778E-03,   293.839E-09
C:/temp/dataset/test2/9_6.odb,Step-1,Increment      1: Step Time =    1.000,"PART-1-1",           254,            0.,        20.625,            0.,NA,NA,"",       4.12072,      -4.11702,  -174.649E-03,   340.160E-09
C:/temp/dataset/test2/9_6.odb,Step-1,Increment      1: Step Time =    1.000,"PART-1-1",           255,           -3.,       21.5625,            0.,NA,NA,"",       4.21890,      -4.19304,  -466.411E-03,   269.580E-09
C:/temp/dataset/test2/9_6.odb,Step-1,Increment      1: Step Time =    1.000,"PART-1-1",           256,           -2.,        20.625,            0.,NA,NA,"",       4.12411,      -4.10781,  -366.281E-03,   312.940E-09
C:/temp/dataset/test2/9_6.odb,Step-1,Increment      1: Step Time =    1.000,"PART-1-1",           257,           -5.,       21.5625,            0.,NA,NA,"",       4.23527,      -4.18384,  -658.044E-03,   288.228E-09
C:/temp/dataset/test2/9_6.odb,Step-1,Increment      1: Step Time =    1.000,"PART-1-1",           258,           -4.,        20.625,            0.,NA,NA,"",       4.13641,      -4.09861,  -557.914E-03,   299.975E-09
C:/temp/dataset/test2/9_6.odb,Step-1,Increment      1: Step Time =    1.000,"PART-1-1",           259,            3.,       19.6875,            0.,NA,NA,"",       4.04269,      -4.04099,   117.116E-03,   394.183E-09
C:/temp/dataset/test2/9_6.odb,Step-1,Increment      1: Step Time =    1.000,"PART-1-1",           260,            4.,         18.75,            0.,NA,NA,"",       3.96173,      -3.95577,   217.247E-03,   511.802E-09
C:/temp/dataset/test2/9_6.odb,Step-1,Increment      1: Step Time =    1.000,"PART-1-1",           261,            5.,       19.6875,            0.,NA,NA,"",       4.06195,      -4.05019,   308.750E-03,   610.388E-09
C:/temp/dataset/test2/9_6.odb,Step-1,Increment      1: Step Time =    1.000,"PART-1-1",           262,            1.,       19.6875,            0.,NA,NA,"",       4.03248,      -4.03179,  -74.5186E-03,   403.225E-09
C:/temp/dataset/test2/9_6.odb,Step-1,Increment      1: Step Time =    1.000,"PART-1-1",           263,            2.,         18.75,            0.,NA,NA,"",       3.94665,      -3.94656,   25.6117E-03,   376.266E-09
C:/temp/dataset/test2/9_6.odb,Step-1,Increment      1: Step Time =    1.000,"PART-1-1",           264,           -1.,       19.6875,            0.,NA,NA,"",       4.03138,      -4.02259,  -266.152E-03,   402.128E-09
C:/temp/dataset/test2/9_6.odb,Step-1,Increment      1: Step Time =    1.000,"PART-1-1",           265,            0.,         18.75,            0.,NA,NA,"",       3.94086,      -3.93736,  -166.022E-03,   426.133E-09
C:/temp/dataset/test2/9_6.odb,Step-1,Increment      1: Step Time =    1.000,"PART-1-1",           266,           -3.,       19.6875,            0.,NA,NA,"",       4.03941,      -4.01339,  -457.784E-03,   393.194E-09
C:/temp/dataset/test2/9_6.odb,Step-1,Increment      1: Step Time =    1.000,"PART-1-1",           267,           -2.,         18.75,            0.,NA,NA,"",       3.94441,      -3.92816,  -357.655E-03,   374.467E-09
C:/temp/dataset/test2/9_6.odb,Step-1,Increment      1: Step Time =    1.000,"PART-1-1",           268,           -5.,       19.6875,            0.,NA,NA,"",       4.05650,      -4.00418,  -649.416E-03,   613.241E-09
C:/temp/dataset/test2/9_6.odb,Step-1,Increment      1: Step Time =    1.000,"PART-1-1",           269,           -4.,         18.75,            0.,NA,NA,"",       3.95726,      -3.91896,  -549.286E-03,   513.382E-09
C:/temp/dataset/test2/9_6.odb,Step-1,Increment      1: Step Time =    1.000,"PART-1-1",           270,            3.,       17.8125,            0.,NA,NA,"",       3.86338,      -3.86134,   125.743E-03,   301.866E-09
C:/temp/dataset/test2/9_6.odb,Step-1,Increment      1: Step Time =    1.000,"PART-1-1",           271,            4.,        16.875,            0.,NA,NA,"",       3.78286,      -3.77611,   225.874E-03,   660.889E-09
C:/temp/dataset/test2/9_6.odb,Step-1,Increment      1: Step Time =    1.000,"PART-1-1",           272,            5.,       17.8125,            0.,NA,NA,"",       3.88353,      -3.87054,   317.378E-03,   1.06544E-06
C:/temp/dataset/test2/9_6.odb,Step-1,Increment      1: Step Time =    1.000,"PART-1-1",           273,            1.,       17.8125,            0.,NA,NA,"",       3.85270,      -3.85213,  -65.8923E-03,   433.547E-09
C:/temp/dataset/test2/9_6.odb,Step-1,Increment      1: Step Time =    1.000,"PART-1-1",           274,            2.,        16.875,            0.,NA,NA,"",       3.76706,      -3.76691,   34.2383E-03,   412.187E-09
C:/temp/dataset/test2/9_6.odb,Step-1,Increment      1: Step Time =    1.000,"PART-1-1",           275,           -1.,       17.8125,            0.,NA,NA,"",       3.85155,      -3.84293,  -257.526E-03,   431.355E-09
C:/temp/dataset/test2/9_6.odb,Step-1,Increment      1: Step Time =    1.000,"PART-1-1",           276,            0.,        16.875,            0.,NA,NA,"",       3.76100,      -3.75770,  -157.396E-03,   644.217E-09
C:/temp/dataset/test2/9_6.odb,Step-1,Increment      1: Step Time =    1.000,"PART-1-1",           277,           -3.,       17.8125,            0.,NA,NA,"",       3.85995,      -3.83373,  -449.157E-03,   298.118E-09
C:/temp/dataset/test2/9_6.odb,Step-1,Increment      1: Step Time =    1.000,"PART-1-1",           278,           -2.,        16.875,            0.,NA,NA,"",       3.76472,      -3.74850,  -349.028E-03,   412.980E-09
C:/temp/dataset/test2/9_6.odb,Step-1,Increment      1: Step Time =    1.000,"PART-1-1",           279,           -5.,       17.8125,            0.,NA,NA,"",       3.87784,      -3.82453,  -640.788E-03,   1.06432E-06
C:/temp/dataset/test2/9_6.odb,Step-1,Increment      1: Step Time =    1.000,"PART-1-1",           280,           -4.,        16.875,            0.,NA,NA,"",       3.77819,      -3.73930,  -540.659E-03,   660.934E-09
C:/temp/dataset/test2/9_6.odb,Step-1,Increment      1: Step Time =    1.000,"PART-1-1",           281,            3.,       15.9375,            0.,NA,NA,"",       3.68413,      -3.68168,   134.370E-03,   912.966E-09
C:/temp/dataset/test2/9_6.odb,Step-1,Increment      1: Step Time =    1.000,"PART-1-1",           282,            4.,           15.,            0.,NA,NA,"",       3.60408,      -3.59645,   234.503E-03,   882.908E-09
C:/temp/dataset/test2/9_6.odb,Step-1,Increment      1: Step Time =    1.000,"PART-1-1",           283,            5.,       15.9375,            0.,NA,NA,"",       3.70525,      -3.69088,   326.008E-03,   1.31471E-06
C:/temp/dataset/test2/9_6.odb,Step-1,Increment      1: Step Time =    1.000,"PART-1-1",           284,            1.,       15.9375,            0.,NA,NA,"",       3.67292,      -3.67248,  -57.2653E-03,   1.76505E-06
C:/temp/dataset/test2/9_6.odb,Step-1,Increment      1: Step Time =    1.000,"PART-1-1",           285,            2.,           15.,            0.,NA,NA,"",       3.58750,      -3.58725,   42.8659E-03,   2.32187E-06
C:/temp/dataset/test2/9_6.odb,Step-1,Increment      1: Step Time =    1.000,"PART-1-1",           286,           -1.,       15.9375,            0.,NA,NA,"",       3.67172,      -3.66328,  -248.899E-03,   1.76552E-06
C:/temp/dataset/test2/9_6.odb,Step-1,Increment      1: Step Time =    1.000,"PART-1-1",           287,            0.,           15.,            0.,NA,NA,"",       3.58114,      -3.57805,  -148.768E-03,   2.82549E-06
C:/temp/dataset/test2/9_6.odb,Step-1,Increment      1: Step Time =    1.000,"PART-1-1",           288,           -3.,       15.9375,            0.,NA,NA,"",       3.68054,      -3.65408,  -440.531E-03,   923.099E-09
C:/temp/dataset/test2/9_6.odb,Step-1,Increment      1: Step Time =    1.000,"PART-1-1",           289,           -2.,           15.,            0.,NA,NA,"",       3.58505,      -3.56885,  -340.401E-03,   2.33114E-06
C:/temp/dataset/test2/9_6.odb,Step-1,Increment      1: Step Time =    1.000,"PART-1-1",           290,           -5.,       15.9375,            0.,NA,NA,"",       3.69929,      -3.64488,  -632.159E-03,   1.30042E-06
C:/temp/dataset/test2/9_6.odb,Step-1,Increment      1: Step Time =    1.000,"PART-1-1",           291,           -4.,           15.,            0.,NA,NA,"",       3.59919,      -3.55965,  -532.032E-03,   898.799E-09
C:/temp/dataset/test2/9_6.odb,Step-1,Increment      1: Step Time =    1.000,"PART-1-1",           292,            3.,       14.0625,            0.,NA,NA,"",       3.50493,      -3.50201,   142.997E-03,   4.74464E-06
C:/temp/dataset/test2/9_6.odb,Step-1,Increment      1: Step Time =    1.000,"PART-1-1",           293,            4.,        13.125,            0.,NA,NA,"",       3.42542,      -3.41678,   243.129E-03,   3.90116E-06
C:/temp/dataset/test2/9_6.odb,Step-1,Increment      1: Step Time =    1.000,"PART-1-1",           294,            5.,       14.0625,            0.,NA,NA,"",       3.52712,      -3.51121,   334.638E-03,   281.958E-09
C:/temp/dataset/test2/9_6.odb,Step-1,Increment      1: Step Time =    1.000,"PART-1-1",           295,            1.,       14.0625,            0.,NA,NA,"",       3.49316,      -3.49282,  -48.6354E-03,   6.61091E-06
C:/temp/dataset/test2/9_6.odb,Step-1,Increment      1: Step Time =    1.000,"PART-1-1",           296,            2.,        13.125,            0.,NA,NA,"",       3.40797,      -3.40758,   51.4968E-03,   8.26179E-06
C:/temp/dataset/test2/9_6.odb,Step-1,Increment      1: Step Time =    1.000,"PART-1-1",           297,           -1.,       14.0625,            0.,NA,NA,"",       3.49190,      -3.48362,  -240.270E-03,   6.59316E-06
C:/temp/dataset/test2/9_6.odb,Step-1,Increment      1: Step Time =    1.000,"PART-1-1",           298,            0.,        13.125,            0.,NA,NA,"",       3.40128,      -3.39839,  -140.134E-03,   9.39951E-06
C:/temp/dataset/test2/9_6.odb,Step-1,Increment      1: Step Time =    1.000,"PART-1-1",           299,           -3.,       14.0625,            0.,NA,NA,"",       3.50117,      -3.47443,  -431.904E-03,   4.73360E-06
C:/temp/dataset/test2/9_6.odb,Step-1,Increment      1: Step Time =    1.000,"PART-1-1",           300,           -2.,        13.125,            0.,NA,NA,"",       3.40541,      -3.38921,  -331.773E-03,   8.25057E-06
C:/temp/dataset/test2/9_6.odb,Step-1,Increment      1: Step Time =    1.000,"PART-1-1",           301,           -5.,       14.0625,            0.,NA,NA,"",       3.52088,      -3.46523,  -623.531E-03,   276.172E-09
C:/temp/dataset/test2/9_6.odb,Step-1,Increment      1: Step Time =    1.000,"PART-1-1",           302,           -4.,        13.125,            0.,NA,NA,"",       3.42029,      -3.38001,  -523.407E-03,   3.90975E-06
C:/temp/dataset/test2/9_6.odb,Step-1,Increment      1: Step Time =    1.000,"PART-1-1",           303,            3.,       12.1875,            0.,NA,NA,"",       3.32579,      -3.32234,   151.626E-03,   14.8524E-06
C:/temp/dataset/test2/9_6.odb,Step-1,Increment      1: Step Time =    1.000,"PART-1-1",           304,            4.,         11.25,            0.,NA,NA,"",       3.24687,      -3.23709,   251.751E-03,   13.4232E-06
C:/temp/dataset/test2/9_6.odb,Step-1,Increment      1: Step Time =    1.000,"PART-1-1",           305,            5.,       12.1875,            0.,NA,NA,"",       3.34918,      -3.33154,   343.265E-03,   6.11179E-06
C:/temp/dataset/test2/9_6.odb,Step-1,Increment      1: Step Time =    1.000,"PART-1-1",           306,            1.,       12.1875,            0.,NA,NA,"",       3.31339,      -3.31315,  -39.9964E-03,   18.5801E-06
C:/temp/dataset/test2/9_6.odb,Step-1,Increment      1: Step Time =    1.000,"PART-1-1",           307,            2.,         11.25,            0.,NA,NA,"",       3.22846,      -3.22790,   60.1362E-03,   22.3605E-06
C:/temp/dataset/test2/9_6.odb,Step-1,Increment      1: Step Time =    1.000,"PART-1-1",           308,           -1.,       12.1875,            0.,NA,NA,"",       3.31209,      -3.30398,  -231.632E-03,   18.4389E-06
C:/temp/dataset/test2/9_6.odb,Step-1,Increment      1: Step Time =    1.000,"PART-1-1",           309,            0.,         11.25,            0.,NA,NA,"",       3.22142,      -3.21874,  -131.484E-03,   24.6595E-06
C:/temp/dataset/test2/9_6.odb,Step-1,Increment      1: Step Time =    1.000,"PART-1-1",           310,           -3.,       12.1875,            0.,NA,NA,"",       3.32187,      -3.29479,  -423.280E-03,   14.6419E-06
C:/temp/dataset/test2/9_6.odb,Step-1,Increment      1: Step Time =    1.000,"PART-1-1",           311,           -2.,         11.25,            0.,NA,NA,"",       3.22580,      -3.20957,  -323.138E-03,   22.0661E-06
C:/temp/dataset/test2/9_6.odb,Step-1,Increment      1: Step Time =    1.000,"PART-1-1",           312,           -5.,       12.1875,            0.,NA,NA,"",       3.34263,      -3.28559,  -614.907E-03,   6.10663E-06
C:/temp/dataset/test2/9_6.odb,Step-1,Increment      1: Step Time =    1.000,"PART-1-1",           313,           -4.,         11.25,            0.,NA,NA,"",       3.24152,      -3.20038,  -514.791E-03,   13.2892E-06
C:/temp/dataset/test2/9_6.odb,Step-1,Increment      1: Step Time =    1.000,"PART-1-1",           314,            3.,       10.3125,            0.,NA,NA,"",       3.14673,      -3.14264,   160.255E-03,   37.2926E-06
C:/temp/dataset/test2/9_6.odb,Step-1,Increment      1: Step Time =    1.000,"PART-1-1",           315,            4.,         9.375,            0.,NA,NA,"",       3.06845,      -3.05739,   260.355E-03,   36.4552E-06
C:/temp/dataset/test2/9_6.odb,Step-1,Increment      1: Step Time =    1.000,"PART-1-1",           316,            5.,       10.3125,            0.,NA,NA,"",       3.17143,      -3.15185,   351.878E-03,   24.9987E-06
C:/temp/dataset/test2/9_6.odb,Step-1,Increment      1: Step Time =    1.000,"PART-1-1",           317,            1.,       10.3125,            0.,NA,NA,"",       3.13364,      -3.13348,  -31.3360E-03,   43.3055E-06
C:/temp/dataset/test2/9_6.odb,Step-1,Increment      1: Step Time =    1.000,"PART-1-1",           318,            2.,         9.375,            0.,NA,NA,"",       3.04899,      -3.04821,   68.7946E-03,   50.2392E-06
C:/temp/dataset/test2/9_6.odb,Step-1,Increment      1: Step Time =    1.000,"PART-1-1",           319,           -1.,       10.3125,            0.,NA,NA,"",       3.13229,      -3.12434,  -222.976E-03,   42.4694E-06
C:/temp/dataset/test2/9_6.odb,Step-1,Increment      1: Step Time =    1.000,"PART-1-1",           320,            0.,         9.375,            0.,NA,NA,"",       3.04157,      -3.03909,  -122.801E-03,   54.1515E-06
C:/temp/dataset/test2/9_6.odb,Step-1,Increment      1: Step Time =    1.000,"PART-1-1",           321,           -3.,       10.3125,            0.,NA,NA,"",       3.14265,      -3.11517,  -414.658E-03,   35.6488E-06
C:/temp/dataset/test2/9_6.odb,Step-1,Increment      1: Step Time =    1.000,"PART-1-1",           322,           -2.,         9.375,            0.,NA,NA,"",       3.04624,      -3.02996,  -314.489E-03,   48.6261E-06
C:/temp/dataset/test2/9_6.odb,Step-1,Increment      1: Step Time =    1.000,"PART-1-1",           323,           -5.,       10.3125,            0.,NA,NA,"",       3.16458,      -3.10596,  -606.300E-03,   24.4194E-06
C:/temp/dataset/test2/9_6.odb,Step-1,Increment      1: Step Time =    1.000,"PART-1-1",           324,           -4.,         9.375,            0.,NA,NA,"",       3.06288,      -3.02076,  -506.196E-03,   35.0533E-06
C:/temp/dataset/test2/9_6.odb,Step-1,Increment      1: Step Time =    1.000,"PART-1-1",           325,            3.,        8.4375,            0.,NA,NA,"",       2.96774,      -2.96293,   168.886E-03,   78.0856E-06
C:/temp/dataset/test2/9_6.odb,Step-1,Increment      1: Step Time =    1.000,"PART-1-1",           326,            4.,           7.5,            0.,NA,NA,"",       2.89020,      -2.87767,   268.917E-03,   83.3721E-06
C:/temp/dataset/test2/9_6.odb,Step-1,Increment      1: Step Time =    1.000,"PART-1-1",           327,            5.,        8.4375,            0.,NA,NA,"",       2.99392,      -2.97215,   360.443E-03,   73.2781E-06
C:/temp/dataset/test2/9_6.odb,Step-1,Increment      1: Step Time =    1.000,"PART-1-1",           328,            1.,        8.4375,            0.,NA,NA,"",       2.95390,      -2.95381,  -22.6322E-03,   85.0536E-06
C:/temp/dataset/test2/9_6.odb,Step-1,Increment      1: Step Time =    1.000,"PART-1-1",           329,            2.,           7.5,            0.,NA,NA,"",       2.86956,      -2.86851,   77.4899E-03,   95.8619E-06
C:/temp/dataset/test2/9_6.odb,Step-1,Increment      1: Step Time =    1.000,"PART-1-1",           330,           -1.,        8.4375,            0.,NA,NA,"",       2.95251,      -2.94472,  -214.282E-03,   81.5684E-06
C:/temp/dataset/test2/9_6.odb,Step-1,Increment      1: Step Time =    1.000,"PART-1-1",           331,            0.,           7.5,            0.,NA,NA,"",       2.86173,      -2.85945,  -114.056E-03,   99.4033E-06
C:/temp/dataset/test2/9_6.odb,Step-1,Increment      1: Step Time =    1.000,"PART-1-1",           332,           -3.,        8.4375,            0.,NA,NA,"",       2.96352,      -2.93557,  -406.041E-03,   71.4295E-06
C:/temp/dataset/test2/9_6.odb,Step-1,Increment      1: Step Time =    1.000,"PART-1-1",           333,           -2.,           7.5,            0.,NA,NA,"",       2.86672,      -2.85036,  -305.815E-03,   88.0901E-06
C:/temp/dataset/test2/9_6.odb,Step-1,Increment      1: Step Time =    1.000,"PART-1-1",           334,           -5.,        8.4375,            0.,NA,NA,"",       2.98676,      -2.92634,  -597.740E-03,   67.5077E-06
C:/temp/dataset/test2/9_6.odb,Step-1,Increment      1: Step Time =    1.000,"PART-1-1",           335,           -4.,           7.5,            0.,NA,NA,"",       2.88440,      -2.84115,  -497.642E-03,   76.4054E-06
C:/temp/dataset/test2/9_6.odb,Step-1,Increment      1: Step Time =    1.000,"PART-1-1",           336,            3.,        6.5625,            0.,NA,NA,"",       2.78888,      -2.78322,   177.519E-03,   139.529E-06
C:/temp/dataset/test2/9_6.odb,Step-1,Increment      1: Step Time =    1.000,"PART-1-1",           337,            4.,         5.625,            0.,NA,NA,"",       2.71221,      -2.69799,   277.385E-03,   162.746E-06
C:/temp/dataset/test2/9_6.odb,Step-1,Increment      1: Step Time =    1.000,"PART-1-1",           338,            5.,        6.5625,            0.,NA,NA,"",       2.81672,      -2.79246,   368.894E-03,   173.485E-06
C:/temp/dataset/test2/9_6.odb,Step-1,Increment      1: Step Time =    1.000,"PART-1-1",           339,            1.,        6.5625,            0.,NA,NA,"",       2.77419,      -2.77416,  -13.8571E-03,   135.220E-06
C:/temp/dataset/test2/9_6.odb,Step-1,Increment      1: Step Time =    1.000,"PART-1-1",           340,            2.,         5.625,            0.,NA,NA,"",       2.69025,      -2.68887,   86.2430E-03,   141.994E-06
C:/temp/dataset/test2/9_6.odb,Step-1,Increment      1: Step Time =    1.000,"PART-1-1",           341,           -1.,        6.5625,            0.,NA,NA,"",       2.77274,      -2.76511,  -205.529E-03,   124.308E-06
C:/temp/dataset/test2/9_6.odb,Step-1,Increment      1: Step Time =    1.000,"PART-1-1",           342,            0.,         5.625,            0.,NA,NA,"",       2.68190,      -2.67984,  -105.235E-03,   142.620E-06
C:/temp/dataset/test2/9_6.odb,Step-1,Increment      1: Step Time =    1.000,"PART-1-1",           343,           -3.,        6.5625,            0.,NA,NA,"",       2.78447,      -2.75596,  -397.433E-03,   112.863E-06
C:/temp/dataset/test2/9_6.odb,Step-1,Increment      1: Step Time =    1.000,"PART-1-1",           344,           -2.,         5.625,            0.,NA,NA,"",       2.68719,      -2.67072,  -297.110E-03,   120.102E-06
C:/temp/dataset/test2/9_6.odb,Step-1,Increment      1: Step Time =    1.000,"PART-1-1",           345,           -5.,        6.5625,            0.,NA,NA,"",       2.80917,      -2.74667,  -589.278E-03,   149.369E-06
C:/temp/dataset/test2/9_6.odb,Step-1,Increment      1: Step Time =    1.000,"PART-1-1",           346,           -4.,         5.625,            0.,NA,NA,"",       2.70604,      -2.66146,  -489.155E-03,   137.434E-06
C:/temp/dataset/test2/9_6.odb,Step-1,Increment      1: Step Time =    1.000,"PART-1-1",           347,            3.,        4.6875,            0.,NA,NA,"",       2.61030,      -2.60366,   186.150E-03,   169.251E-06
C:/temp/dataset/test2/9_6.odb,Step-1,Increment      1: Step Time =    1.000,"PART-1-1",           348,            4.,          3.75,            0.,NA,NA,"",       2.53478,      -2.51863,   285.727E-03,   258.388E-06
C:/temp/dataset/test2/9_6.odb,Step-1,Increment      1: Step Time =    1.000,"PART-1-1",           349,            5.,        4.6875,            0.,NA,NA,"",       2.63999,      -2.61292,   377.065E-03,   375.628E-06
C:/temp/dataset/test2/9_6.odb,Step-1,Increment      1: Step Time =    1.000,"PART-1-1",           350,            1.,        4.6875,            0.,NA,NA,"",       2.59460,      -2.59460,  -5.00925E-03,   159.138E-06
C:/temp/dataset/test2/9_6.odb,Step-1,Increment      1: Step Time =    1.000,"PART-1-1",           351,            2.,          3.75,            0.,NA,NA,"",       2.51128,      -2.50948,   95.0493E-03,   145.441E-06
C:/temp/dataset/test2/9_6.odb,Step-1,Increment      1: Step Time =    1.000,"PART-1-1",           352,           -1.,        4.6875,            0.,NA,NA,"",       2.59293,      -2.58545,  -196.729E-03,   128.695E-06
C:/temp/dataset/test2/9_6.odb,Step-1,Increment      1: Step Time =    1.000,"PART-1-1",           353,            0.,          3.75,            0.,NA,NA,"",       2.50209,      -2.50023,  -96.3999E-03,   165.074E-06
C:/temp/dataset/test2/9_6.odb,Step-1,Increment      1: Step Time =    1.000,"PART-1-1",           354,           -3.,        4.6875,            0.,NA,NA,"",       2.60538,      -2.57621,  -388.835E-03,   114.585E-06
C:/temp/dataset/test2/9_6.odb,Step-1,Increment      1: Step Time =    1.000,"PART-1-1",           355,           -2.,          3.75,            0.,NA,NA,"",       2.50751,      -2.49087,  -288.393E-03,   99.2524E-06
C:/temp/dataset/test2/9_6.odb,Step-1,Increment      1: Step Time =    1.000,"PART-1-1",           356,           -5.,        4.6875,            0.,NA,NA,"",       2.63175,      -2.56682,  -580.982E-03,   266.162E-06
C:/temp/dataset/test2/9_6.odb,Step-1,Increment      1: Step Time =    1.000,"PART-1-1",           357,           -4.,          3.75,            0.,NA,NA,"",       2.52763,      -2.48149,  -480.738E-03,   192.316E-06
C:/temp/dataset/test2/9_6.odb,Step-1,Increment      1: Step Time =    1.000,"PART-1-1",           358,            3.,        2.8125,            0.,NA,NA,"",       2.43247,      -2.42465,   194.819E-03,   210.289E-06
C:/temp/dataset/test2/9_6.odb,Step-1,Increment      1: Step Time =    1.000,"PART-1-1",           359,            4.,         1.875,            0.,NA,NA,"",       2.35876,      -2.34040,   293.803E-03,   455.776E-06
C:/temp/dataset/test2/9_6.odb,Step-1,Increment      1: Step Time =    1.000,"PART-1-1",           360,            5.,        2.8125,            0.,NA,NA,"",       2.46422,      -2.43400,   384.745E-03,   617.408E-06
C:/temp/dataset/test2/9_6.odb,Step-1,Increment      1: Step Time =    1.000,"PART-1-1",           361,            1.,        2.8125,            0.,NA,NA,"",       2.41523,      -2.41523,   3.77020E-03,   370.533E-06
C:/temp/dataset/test2/9_6.odb,Step-1,Increment      1: Step Time =    1.000,"PART-1-1",           362,            2.,         1.875,            0.,NA,NA,"",       2.33304,      -2.33074,   103.665E-03,   654.484E-06
C:/temp/dataset/test2/9_6.odb,Step-1,Increment      1: Step Time =    1.000,"PART-1-1",           363,           -1.,        2.8125,            0.,NA,NA,"",       2.41288,      -2.40554,  -187.993E-03,   273.893E-06
C:/temp/dataset/test2/9_6.odb,Step-1,Increment      1: Step Time =    1.000,"PART-1-1",           364,            0.,         1.875,            0.,NA,NA,"",       2.32208,      -2.32042,  -87.8441E-03,   566.952E-06
C:/temp/dataset/test2/9_6.odb,Step-1,Increment      1: Step Time =    1.000,"PART-1-1",           365,           -3.,        2.8125,            0.,NA,NA,"",       2.42599,      -2.39601,  -380.232E-03,   92.1001E-06
C:/temp/dataset/test2/9_6.odb,Step-1,Increment      1: Step Time =    1.000,"PART-1-1",           366,           -2.,         1.875,            0.,NA,NA,"",       2.32726,      -2.31039,  -279.720E-03,   360.669E-06
C:/temp/dataset/test2/9_6.odb,Step-1,Increment      1: Step Time =    1.000,"PART-1-1",           367,           -5.,        2.8125,            0.,NA,NA,"",       2.45429,      -2.38650,  -572.871E-03,   353.831E-06
C:/temp/dataset/test2/9_6.odb,Step-1,Increment      1: Step Time =    1.000,"PART-1-1",           368,           -4.,         1.875,            0.,NA,NA,"",       2.34879,      -2.30082,  -472.291E-03,   208.086E-06
C:/temp/dataset/test2/9_6.odb,Step-1,Increment      1: Step Time =    1.000,"PART-1-1",           369,            3.,     937.5E-03,            0.,NA,NA,"",       2.25671,      -2.24755,   203.099E-03,   1.76658E-03
C:/temp/dataset/test2/9_6.odb,Step-1,Increment      1: Step Time =    1.000,"PART-1-1",           370,            4.,            0.,            0.,NA,NA,"",       2.18738,      -2.16643,   302.042E-03,   3.47073E-03
C:/temp/dataset/test2/9_6.odb,Step-1,Increment      1: Step Time =    1.000,"PART-1-1",           371,            5.,     937.5E-03,            0.,NA,NA,"",       2.29069,      -2.25702,   391.284E-03,   805.439E-06
C:/temp/dataset/test2/9_6.odb,Step-1,Increment      1: Step Time =    1.000,"PART-1-1",           372,            1.,     937.5E-03,            0.,NA,NA,"",       2.23586,      -2.23583,   11.8209E-03,   1.40169E-03
C:/temp/dataset/test2/9_6.odb,Step-1,Increment      1: Step Time =    1.000,"PART-1-1",           373,            2.,            0.,            0.,NA,NA,"",       2.15515,      -2.15230,   110.781E-03,   2.57580E-03
C:/temp/dataset/test2/9_6.odb,Step-1,Increment      1: Step Time =    1.000,"PART-1-1",           374,           -1.,     937.5E-03,            0.,NA,NA,"",       2.23201,      -2.22478,  -179.554E-03,   1.00225E-03
C:/temp/dataset/test2/9_6.odb,Step-1,Increment      1: Step Time =    1.000,"PART-1-1",           375,            0.,            0.,            0.,NA,NA,"",       2.14093,      -2.13943,  -80.0881E-03,   1.80547E-03
C:/temp/dataset/test2/9_6.odb,Step-1,Increment      1: Step Time =    1.000,"PART-1-1",           376,           -3.,     937.5E-03,            0.,NA,NA,"",       2.24574,      -2.21479,  -371.515E-03,   569.839E-06
C:/temp/dataset/test2/9_6.odb,Step-1,Increment      1: Step Time =    1.000,"PART-1-1",           377,           -2.,            0.,            0.,NA,NA,"",       2.14569,      -2.12850,  -271.071E-03,   1.19877E-03
C:/temp/dataset/test2/9_6.odb,Step-1,Increment      1: Step Time =    1.000,"PART-1-1",           378,           -5.,     937.5E-03,            0.,NA,NA,"",       2.27642,      -2.20525,  -564.763E-03,   240.903E-06
C:/temp/dataset/test2/9_6.odb,Step-1,Increment      1: Step Time =    1.000,"PART-1-1",           379,           -4.,            0.,            0.,NA,NA,"",       2.16897,      -2.11887,  -463.490E-03,   457.335E-06
C:/temp/dataset/test2/9_6.odb,Step-1,Increment      1: Step Time =    1.000,"PART-1-1",           380,            3.,    -937.5E-03,            0.,NA,NA,"",       2.08055,      -2.07006,   208.745E-03,   4.77375E-03
C:/temp/dataset/test2/9_6.odb,Step-1,Increment      1: Step Time =    1.000,"PART-1-1",           381,            4.,        -1.875,            0.,NA,NA,"",       2.01182,      -1.98837,   306.214E-03,   6.05110E-03
C:/temp/dataset/test2/9_6.odb,Step-1,Increment      1: Step Time =    1.000,"PART-1-1",           382,            5.,    -937.5E-03,            0.,NA,NA,"",       2.12595,      -2.08829,   398.358E-03,   4.94136E-03
C:/temp/dataset/test2/9_6.odb,Step-1,Increment      1: Step Time =    1.000,"PART-1-1",           383,            1.,    -937.5E-03,            0.,NA,NA,"",       2.05465,      -2.05456,   18.3135E-03,   3.21973E-03
C:/temp/dataset/test2/9_6.odb,Step-1,Increment      1: Step Time =    1.000,"PART-1-1",           384,            2.,        -1.875,            0.,NA,NA,"",       1.97346,      -1.97008,   115.532E-03,   5.12323E-03
C:/temp/dataset/test2/9_6.odb,Step-1,Increment      1: Step Time =    1.000,"PART-1-1",           385,           -1.,    -937.5E-03,            0.,NA,NA,"",       2.04925,      -2.04206,  -171.471E-03,   2.31364E-03
C:/temp/dataset/test2/9_6.odb,Step-1,Increment      1: Step Time =    1.000,"PART-1-1",           386,            0.,        -1.875,            0.,NA,NA,"",       1.95695,      -1.95559,  -73.1061E-03,   3.61743E-03
C:/temp/dataset/test2/9_6.odb,Step-1,Increment      1: Step Time =    1.000,"PART-1-1",           387,           -3.,    -937.5E-03,            0.,NA,NA,"",       2.06394,      -2.03189,  -362.355E-03,   1.49577E-03
C:/temp/dataset/test2/9_6.odb,Step-1,Increment      1: Step Time =    1.000,"PART-1-1",           388,           -2.,        -1.875,            0.,NA,NA,"",       1.96203,      -1.94444,  -262.086E-03,   2.50141E-03
C:/temp/dataset/test2/9_6.odb,Step-1,Increment      1: Step Time =    1.000,"PART-1-1",           389,           -5.,    -937.5E-03,            0.,NA,NA,"",       2.09771,      -2.02266,  -556.069E-03,   346.826E-06
C:/temp/dataset/test2/9_6.odb,Step-1,Increment      1: Step Time =    1.000,"PART-1-1",           390,           -4.,        -1.875,            0.,NA,NA,"",       1.98773,      -1.93526,  -453.698E-03,   1.26404E-03
C:/temp/dataset/test2/9_6.odb,Step-1,Increment      1: Step Time =    1.000,"PART-1-1",           391,            3.,       -2.8125,            0.,NA,NA,"",       1.89648,      -1.88458,   212.144E-03,   6.67671E-03
C:/temp/dataset/test2/9_6.odb,Step-1,Increment      1: Step Time =    1.000,"PART-1-1",           392,            4.,         -3.75,            0.,NA,NA,"",       1.82314,      -1.79659,   310.017E-03,   5.76356E-03
C:/temp/dataset/test2/9_6.odb,Step-1,Increment      1: Step Time =    1.000,"PART-1-1",           393,            5.,       -2.8125,            0.,NA,NA,"",       1.94750,      -1.90432,   407.798E-03,   5.20208E-03
C:/temp/dataset/test2/9_6.odb,Step-1,Increment      1: Step Time =    1.000,"PART-1-1",           394,            1.,       -2.8125,            0.,NA,NA,"",       1.86901,      -1.86885,   23.9232E-03,   5.02865E-03
C:/temp/dataset/test2/9_6.odb,Step-1,Increment      1: Step Time =    1.000,"PART-1-1",           395,            2.,         -3.75,            0.,NA,NA,"",       1.78527,      -1.78123,   120.066E-03,   6.08255E-03
C:/temp/dataset/test2/9_6.odb,Step-1,Increment      1: Step Time =    1.000,"PART-1-1",           396,           -1.,       -2.8125,            0.,NA,NA,"",       1.86377,      -1.85661,  -163.177E-03,   3.85811E-03
C:/temp/dataset/test2/9_6.odb,Step-1,Increment      1: Step Time =    1.000,"PART-1-1",           397,            0.,         -3.75,            0.,NA,NA,"",       1.76962,      -1.76839,  -65.8064E-03,   5.12846E-03
C:/temp/dataset/test2/9_6.odb,Step-1,Increment      1: Step Time =    1.000,"PART-1-1",           398,           -3.,       -2.8125,            0.,NA,NA,"",       1.88034,      -1.84708,  -352.125E-03,   2.74617E-03
C:/temp/dataset/test2/9_6.odb,Step-1,Increment      1: Step Time =    1.000,"PART-1-1",           399,           -2.,         -3.75,            0.,NA,NA,"",       1.77634,      -1.75837,  -252.054E-03,   3.88893E-03
C:/temp/dataset/test2/9_6.odb,Step-1,Increment      1: Step Time =    1.000,"PART-1-1",           400,           -5.,       -2.8125,            0.,NA,NA,"",       1.91805,      -1.83877,  -545.756E-03,   1.60116E-03
C:/temp/dataset/test2/9_6.odb,Step-1,Increment      1: Step Time =    1.000,"PART-1-1",           401,           -4.,         -3.75,            0.,NA,NA,"",       1.80531,      -1.75034,  -442.074E-03,   2.59097E-03
C:/temp/dataset/test2/9_6.odb,Step-1,Increment      1: Step Time =    1.000,"PART-1-1",           402,            3.,       -4.6875,            0.,NA,NA,"",       1.70608,      -1.69227,   216.655E-03,   5.87406E-03
C:/temp/dataset/test2/9_6.odb,Step-1,Increment      1: Step Time =    1.000,"PART-1-1",           403,            4.,        -5.625,            0.,NA,NA,"",       1.63353,      -1.60287,   315.028E-03,   4.60104E-03
C:/temp/dataset/test2/9_6.odb,Step-1,Increment      1: Step Time =    1.000,"PART-1-1",           404,            5.,       -4.6875,            0.,NA,NA,"",       1.75475,      -1.70533,   413.536E-03,   4.49371E-03
C:/temp/dataset/test2/9_6.odb,Step-1,Increment      1: Step Time =    1.000,"PART-1-1",           405,            1.,       -4.6875,            0.,NA,NA,"",       1.67993,      -1.67966,   30.3151E-03,   5.95022E-03
C:/temp/dataset/test2/9_6.odb,Step-1,Increment      1: Step Time =    1.000,"PART-1-1",           406,            2.,        -5.625,            0.,NA,NA,"",       1.59552,      -1.59055,   125.784E-03,   5.69910E-03
C:/temp/dataset/test2/9_6.odb,Step-1,Increment      1: Step Time =    1.000,"PART-1-1",           407,           -1.,       -4.6875,            0.,NA,NA,"",       1.67637,      -1.66930,  -153.805E-03,   5.10618E-03
C:/temp/dataset/test2/9_6.odb,Step-1,Increment      1: Step Time =    1.000,"PART-1-1",           408,            0.,        -5.625,            0.,NA,NA,"",       1.58116,      -1.58011,  -57.3649E-03,   5.75550E-03
C:/temp/dataset/test2/9_6.odb,Step-1,Increment      1: Step Time =    1.000,"PART-1-1",           409,           -3.,       -4.6875,            0.,NA,NA,"",       1.69569,      -1.66122,  -340.123E-03,   4.08910E-03
C:/temp/dataset/test2/9_6.odb,Step-1,Increment      1: Step Time =    1.000,"PART-1-1",           410,           -2.,        -5.625,            0.,NA,NA,"",       1.59011,      -1.57184,  -240.406E-03,   4.99078E-03
C:/temp/dataset/test2/9_6.odb,Step-1,Increment      1: Step Time =    1.000,"PART-1-1",           411,           -5.,       -4.6875,            0.,NA,NA,"",       1.73811,      -1.65448,  -532.644E-03,   3.53592E-03
C:/temp/dataset/test2/9_6.odb,Step-1,Increment      1: Step Time =    1.000,"PART-1-1",           412,           -4.,        -5.625,            0.,NA,NA,"",       1.62291,      -1.56549,  -427.879E-03,   4.30185E-03
C:/temp/dataset/test2/9_6.odb,Step-1,Increment      1: Step Time =    1.000,"PART-1-1",           413,            3.,       -6.5625,            0.,NA,NA,"",       1.51841,      -1.50223,   221.033E-03,   5.37554E-03
C:/temp/dataset/test2/9_6.odb,Step-1,Increment      1: Step Time =    1.000,"PART-1-1",           414,            4.,          -7.5,            0.,NA,NA,"",       1.45086,      -1.41618,   315.328E-03,   6.57842E-03
C:/temp/dataset/test2/9_6.odb,Step-1,Increment      1: Step Time =    1.000,"PART-1-1",           415,            5.,       -6.5625,            0.,NA,NA,"",       1.57146,      -1.51632,   412.653E-03,   6.96365E-03
C:/temp/dataset/test2/9_6.odb,Step-1,Increment      1: Step Time =    1.000,"PART-1-1",           416,            1.,       -6.5625,            0.,NA,NA,"",       1.49170,      -1.49123,   37.5003E-03,   6.03459E-03
C:/temp/dataset/test2/9_6.odb,Step-1,Increment      1: Step Time =    1.000,"PART-1-1",           417,            2.,          -7.5,            0.,NA,NA,"",       1.40958,      -1.40349,   130.889E-03,   5.60523E-03
C:/temp/dataset/test2/9_6.odb,Step-1,Increment      1: Step Time =    1.000,"PART-1-1",           418,           -1.,       -6.5625,            0.,NA,NA,"",       1.48948,      -1.48259,  -143.108E-03,   5.81173E-03
C:/temp/dataset/test2/9_6.odb,Step-1,Increment      1: Step Time =    1.000,"PART-1-1",           419,            0.,          -7.5,            0.,NA,NA,"",       1.39485,      -1.39401,  -48.2419E-03,   5.82128E-03
C:/temp/dataset/test2/9_6.odb,Step-1,Increment      1: Step Time =    1.000,"PART-1-1",           420,           -3.,       -6.5625,            0.,NA,NA,"",       1.51177,      -1.47622,  -325.931E-03,   5.37750E-03
C:/temp/dataset/test2/9_6.odb,Step-1,Increment      1: Step Time =    1.000,"PART-1-1",           421,           -2.,          -7.5,            0.,NA,NA,"",       1.40570,      -1.38724,  -227.094E-03,   5.76782E-03
C:/temp/dataset/test2/9_6.odb,Step-1,Increment      1: Step Time =    1.000,"PART-1-1",           422,           -5.,       -6.5625,            0.,NA,NA,"",       1.55932,      -1.47152,  -515.859E-03,   5.93951E-03
C:/temp/dataset/test2/9_6.odb,Step-1,Increment      1: Step Time =    1.000,"PART-1-1",           423,           -4.,          -7.5,            0.,NA,NA,"",       1.44248,      -1.38277,  -410.717E-03,   6.21980E-03
C:/temp/dataset/test2/9_6.odb,Step-1,Increment      1: Step Time =    1.000,"PART-1-1",           424,            3.,       -8.4375,            0.,NA,NA,"",       1.33655,      -1.31791,   222.465E-03,   6.46918E-03
C:/temp/dataset/test2/9_6.odb,Step-1,Increment      1: Step Time =    1.000,"PART-1-1",           425,            4.,        -9.375,            0.,NA,NA,"",       1.27391,      -1.23516,   311.790E-03,   8.46482E-03
C:/temp/dataset/test2/9_6.odb,Step-1,Increment      1: Step Time =    1.000,"PART-1-1",           426,            5.,       -8.4375,            0.,NA,NA,"",       1.39405,      -1.33305,   407.865E-03,   9.25232E-03
C:/temp/dataset/test2/9_6.odb,Step-1,Increment      1: Step Time =    1.000,"PART-1-1",           427,            1.,       -8.4375,            0.,NA,NA,"",       1.30756,      -1.30681,   44.1469E-03,   5.98885E-03
C:/temp/dataset/test2/9_6.odb,Step-1,Increment      1: Step Time =    1.000,"PART-1-1",           428,            2.,        -9.375,            0.,NA,NA,"",       1.22907,      -1.22175,   133.867E-03,   6.17911E-03
C:/temp/dataset/test2/9_6.odb,Step-1,Increment      1: Step Time =    1.000,"PART-1-1",           429,           -1.,       -8.4375,            0.,NA,NA,"",       1.30576,      -1.29912,  -131.514E-03,   6.12474E-03
C:/temp/dataset/test2/9_6.odb,Step-1,Increment      1: Step Time =    1.000,"PART-1-1",           430,            0.,        -9.375,            0.,NA,NA,"",       1.21316,      -1.21252,  -39.2929E-03,   5.79196E-03
C:/temp/dataset/test2/9_6.odb,Step-1,Increment      1: Step Time =    1.000,"PART-1-1",           431,           -3.,       -8.4375,            0.,NA,NA,"",       1.33085,      -1.29436,  -309.513E-03,   6.61945E-03
C:/temp/dataset/test2/9_6.odb,Step-1,Increment      1: Step Time =    1.000,"PART-1-1",           432,           -2.,        -9.375,            0.,NA,NA,"",       1.22545,      -1.20690,  -212.403E-03,   6.40261E-03
C:/temp/dataset/test2/9_6.odb,Step-1,Increment      1: Step Time =    1.000,"PART-1-1",           433,           -5.,       -8.4375,            0.,NA,NA,"",       1.38357,      -1.29197,  -495.050E-03,   8.54790E-03
C:/temp/dataset/test2/9_6.odb,Step-1,Increment      1: Step Time =    1.000,"PART-1-1",           434,           -4.,        -9.375,            0.,NA,NA,"",       1.26612,      -1.20438,  -390.532E-03,   8.21454E-03
C:/temp/dataset/test2/9_6.odb,Step-1,Increment      1: Step Time =    1.000,"PART-1-1",           435,            3.,      -10.3125,            0.,NA,NA,"",       1.16067,      -1.13950,   220.644E-03,   7.81762E-03
C:/temp/dataset/test2/9_6.odb,Step-1,Increment      1: Step Time =    1.000,"PART-1-1",           436,            4.,        -11.25,            0.,NA,NA,"",       1.10338,      -1.06059,   304.295E-03,   10.4104E-03
C:/temp/dataset/test2/9_6.odb,Step-1,Increment      1: Step Time =    1.000,"PART-1-1",           437,            5.,      -10.3125,            0.,NA,NA,"",       1.22255,      -1.15573,   398.645E-03,   11.5934E-03
C:/temp/dataset/test2/9_6.odb,Step-1,Increment      1: Step Time =    1.000,"PART-1-1",           438,            1.,      -10.3125,            0.,NA,NA,"",       1.12919,      -1.12810,   49.4089E-03,   6.12303E-03
C:/temp/dataset/test2/9_6.odb,Step-1,Increment      1: Step Time =    1.000,"PART-1-1",           439,            2.,        -11.25,            0.,NA,NA,"",       1.05509,      -1.04649,   134.411E-03,   6.93782E-03
C:/temp/dataset/test2/9_6.odb,Step-1,Increment      1: Step Time =    1.000,"PART-1-1",           440,           -1.,      -10.3125,            0.,NA,NA,"",       1.12739,      -1.12104,  -119.522E-03,   6.29197E-03
C:/temp/dataset/test2/9_6.odb,Step-1,Increment      1: Step Time =    1.000,"PART-1-1",           441,            0.,        -11.25,            0.,NA,NA,"",       1.03786,      -1.03739,  -30.9961E-03,   5.77369E-03
C:/temp/dataset/test2/9_6.odb,Step-1,Increment      1: Step Time =    1.000,"PART-1-1",           442,           -3.,      -10.3125,            0.,NA,NA,"",       1.15506,      -1.11779,  -291.023E-03,   7.87962E-03
C:/temp/dataset/test2/9_6.odb,Step-1,Increment      1: Step Time =    1.000,"PART-1-1",           443,           -2.,        -11.25,            0.,NA,NA,"",       1.05138,      -1.03283,  -196.616E-03,   7.04479E-03
C:/temp/dataset/test2/9_6.odb,Step-1,Increment      1: Step Time =    1.000,"PART-1-1",           444,           -5.,      -10.3125,            0.,NA,NA,"",       1.21276,      -1.11788,  -470.263E-03,   11.1864E-03
C:/temp/dataset/test2/9_6.odb,Step-1,Increment      1: Step Time =    1.000,"PART-1-1",           445,           -4.,        -11.25,            0.,NA,NA,"",       1.09576,      -1.03232,  -367.445E-03,   10.2227E-03
C:/temp/dataset/test2/9_6.odb,Step-1,Increment      1: Step Time =    1.000,"PART-1-1",           446,            3.,      -12.1875,            0.,NA,NA,"",   991.935E-03,  -968.232E-03,   215.551E-03,   9.22647E-03
C:/temp/dataset/test2/9_6.odb,Step-1,Increment      1: Step Time =    1.000,"PART-1-1",           447,            4.,       -13.125,            0.,NA,NA,"",   940.549E-03,  -893.835E-03,   292.732E-03,   12.3902E-03
C:/temp/dataset/test2/9_6.odb,Step-1,Increment      1: Step Time =    1.000,"PART-1-1",           448,            5.,      -12.1875,            0.,NA,NA,"",       1.05791,  -985.472E-03,   384.743E-03,   14.0343E-03
C:/temp/dataset/test2/9_6.odb,Step-1,Increment      1: Step Time =    1.000,"PART-1-1",           449,            1.,      -12.1875,            0.,NA,NA,"",   958.037E-03,  -956.568E-03,   53.0273E-03,   6.36113E-03
C:/temp/dataset/test2/9_6.odb,Step-1,Increment      1: Step Time =    1.000,"PART-1-1",           450,            2.,       -13.125,            0.,NA,NA,"",   889.043E-03,  -879.126E-03,   132.422E-03,   7.76768E-03
C:/temp/dataset/test2/9_6.odb,Step-1,Increment      1: Step Time =    1.000,"PART-1-1",           451,           -1.,      -12.1875,            0.,NA,NA,"",   956.158E-03,  -950.104E-03,  -107.421E-03,   6.44861E-03
C:/temp/dataset/test2/9_6.odb,Step-1,Increment      1: Step Time =    1.000,"PART-1-1",           452,            0.,       -13.125,            0.,NA,NA,"",   870.539E-03,  -870.220E-03,  -23.5480E-03,   5.76914E-03
C:/temp/dataset/test2/9_6.odb,Step-1,Increment      1: Step Time =    1.000,"PART-1-1",           453,           -3.,      -12.1875,            0.,NA,NA,"",   986.266E-03,  -948.407E-03,  -270.639E-03,   9.19038E-03
C:/temp/dataset/test2/9_6.odb,Step-1,Increment      1: Step Time =    1.000,"PART-1-1",           454,           -2.,       -13.125,            0.,NA,NA,"",   885.227E-03,  -866.751E-03,  -179.913E-03,   7.74901E-03
C:/temp/dataset/test2/9_6.odb,Step-1,Increment      1: Step Time =    1.000,"PART-1-1",           455,           -5.,      -12.1875,            0.,NA,NA,"",       1.04863,  -951.071E-03,  -441.698E-03,   13.7896E-03
C:/temp/dataset/test2/9_6.odb,Step-1,Increment      1: Step Time =    1.000,"PART-1-1",           456,           -4.,       -13.125,            0.,NA,NA,"",   933.122E-03,  -868.340E-03,  -341.618E-03,   12.2246E-03
C:/temp/dataset/test2/9_6.odb,Step-1,Increment      1: Step Time =    1.000,"PART-1-1",           457,            3.,      -14.0625,            0.,NA,NA,"",   831.784E-03,  -805.593E-03,   207.086E-03,   10.6631E-03
C:/temp/dataset/test2/9_6.odb,Step-1,Increment      1: Step Time =    1.000,"PART-1-1",           458,            4.,          -15.,            0.,NA,NA,"",   786.832E-03,  -736.479E-03,   276.953E-03,   14.3979E-03
C:/temp/dataset/test2/9_6.odb,Step-1,Increment      1: Step Time =    1.000,"PART-1-1",           459,            5.,      -14.0625,            0.,NA,NA,"",   901.391E-03,  -823.784E-03,   365.903E-03,   16.5294E-03
C:/temp/dataset/test2/9_6.odb,Step-1,Increment      1: Step Time =    1.000,"PART-1-1",           460,            1.,      -14.0625,            0.,NA,NA,"",   795.643E-03,  -793.747E-03,   54.8954E-03,   6.64263E-03
C:/temp/dataset/test2/9_6.odb,Step-1,Increment      1: Step Time =    1.000,"PART-1-1",           461,            2.,          -15.,            0.,NA,NA,"",   732.469E-03,  -721.230E-03,   127.822E-03,   8.63406E-03
C:/temp/dataset/test2/9_6.odb,Step-1,Increment      1: Step Time =    1.000,"PART-1-1",           462,           -1.,      -14.0625,            0.,NA,NA,"",   793.702E-03,  -787.953E-03,  -95.3530E-03,   6.63699E-03
C:/temp/dataset/test2/9_6.odb,Step-1,Increment      1: Step Time =    1.000,"PART-1-1",           463,            0.,          -15.,            0.,NA,NA,"",   712.797E-03,  -712.593E-03,  -17.0407E-03,   5.76921E-03
C:/temp/dataset/test2/9_6.odb,Step-1,Increment      1: Step Time =    1.000,"PART-1-1",           464,           -3.,      -14.0625,            0.,NA,NA,"",   826.142E-03,  -787.882E-03,  -248.502E-03,   10.5488E-03
C:/temp/dataset/test2/9_6.odb,Step-1,Increment      1: Step Time =    1.000,"PART-1-1",           465,           -2.,          -15.,            0.,NA,NA,"",   728.628E-03,  -710.298E-03,  -162.405E-03,   8.51454E-03
C:/temp/dataset/test2/9_6.odb,Step-1,Increment      1: Step Time =    1.000,"PART-1-1",           466,           -5.,      -14.0625,            0.,NA,NA,"",   892.709E-03,  -793.217E-03,  -409.554E-03,   16.3529E-03
C:/temp/dataset/test2/9_6.odb,Step-1,Increment      1: Step Time =    1.000,"PART-1-1",           467,           -4.,          -15.,            0.,NA,NA,"",   779.729E-03,  -714.065E-03,  -313.191E-03,   14.2196E-03
C:/temp/dataset/test2/9_6.odb,Step-1,Increment      1: Step Time =    1.000,"PART-1-1",           468,            3.,      -15.9375,            0.,NA,NA,"",   681.728E-03,  -653.197E-03,   195.159E-03,   12.1218E-03
C:/temp/dataset/test2/9_6.odb,Step-1,Increment      1: Step Time =    1.000,"PART-1-1",           469,            4.,       -16.875,            0.,NA,NA,"",   643.635E-03,  -590.164E-03,   256.853E-03,   16.4212E-03
C:/temp/dataset/test2/9_6.odb,Step-1,Increment      1: Step Time =    1.000,"PART-1-1",           470,            5.,      -15.9375,            0.,NA,NA,"",   754.260E-03,  -672.282E-03,   341.971E-03,   19.0549E-03
C:/temp/dataset/test2/9_6.odb,Step-1,Increment      1: Step Time =    1.000,"PART-1-1",           471,            1.,      -15.9375,            0.,NA,NA,"",   643.584E-03,  -641.234E-03,   54.9453E-03,   6.94927E-03
C:/temp/dataset/test2/9_6.odb,Step-1,Increment      1: Step Time =    1.000,"PART-1-1",           472,            2.,       -16.875,            0.,NA,NA,"",   586.935E-03,  -574.423E-03,   120.543E-03,   9.53016E-03
C:/temp/dataset/test2/9_6.odb,Step-1,Increment      1: Step Time =    1.000,"PART-1-1",           473,           -1.,      -15.9375,            0.,NA,NA,"",   641.625E-03,  -636.182E-03,  -83.3956E-03,   6.86136E-03
C:/temp/dataset/test2/9_6.odb,Step-1,Increment      1: Step Time =    1.000,"PART-1-1",           474,            0.,       -16.875,            0.,NA,NA,"",   566.227E-03,  -566.110E-03,  -11.5334E-03,   5.77082E-03
C:/temp/dataset/test2/9_6.odb,Step-1,Increment      1: Step Time =    1.000,"PART-1-1",           475,           -3.,      -15.9375,            0.,NA,NA,"",   676.235E-03,  -637.808E-03,  -224.711E-03,   11.9407E-03
C:/temp/dataset/test2/9_6.odb,Step-1,Increment      1: Step Time =    1.000,"PART-1-1",           476,           -2.,       -16.875,            0.,NA,NA,"",   583.148E-03,  -565.047E-03,  -144.164E-03,   9.32589E-03
C:/temp/dataset/test2/9_6.odb,Step-1,Increment      1: Step Time =    1.000,"PART-1-1",           477,           -5.,      -15.9375,            0.,NA,NA,"",   746.342E-03,  -645.884E-03,  -373.978E-03,   18.8905E-03
C:/temp/dataset/test2/9_6.odb,Step-1,Increment      1: Step Time =    1.000,"PART-1-1",           478,           -4.,       -16.875,            0.,NA,NA,"",   637.001E-03,  -571.049E-03,  -282.264E-03,   16.2109E-03
C:/temp/dataset/test2/9_6.odb,Step-1,Increment      1: Step Time =    1.000,"PART-1-1",           479,            3.,      -17.8125,            0.,NA,NA,"",   543.273E-03,  -512.693E-03,   179.698E-03,   13.5995E-03
C:/temp/dataset/test2/9_6.odb,Step-1,Increment      1: Step Time =    1.000,"PART-1-1",           480,            4.,        -18.75,            0.,NA,NA,"",   512.294E-03,  -456.564E-03,   232.365E-03,   18.4522E-03
C:/temp/dataset/test2/9_6.odb,Step-1,Increment      1: Step Time =    1.000,"PART-1-1",           481,            5.,      -17.8125,            0.,NA,NA,"",   617.719E-03,  -532.636E-03,   312.850E-03,   21.5923E-03
C:/temp/dataset/test2/9_6.odb,Step-1,Increment      1: Step Time =    1.000,"PART-1-1",           482,            1.,      -17.8125,            0.,NA,NA,"",   503.459E-03,  -500.648E-03,   53.1248E-03,   7.27976E-03
C:/temp/dataset/test2/9_6.odb,Step-1,Increment      1: Step Time =    1.000,"PART-1-1",           483,            2.,        -18.75,            0.,NA,NA,"",   454.009E-03,  -440.348E-03,   110.536E-03,   10.4543E-03
C:/temp/dataset/test2/9_6.odb,Step-1,Increment      1: Step Time =    1.000,"PART-1-1",           484,           -1.,      -17.8125,            0.,NA,NA,"",   501.512E-03,  -496.374E-03,  -71.6012E-03,   7.11632E-03
C:/temp/dataset/test2/9_6.odb,Step-1,Increment      1: Step Time =    1.000,"PART-1-1",           485,            0.,        -18.75,            0.,NA,NA,"",   432.430E-03,  -432.372E-03,  -7.06690E-03,   5.77502E-03
C:/temp/dataset/test2/9_6.odb,Step-1,Increment      1: Step Time =    1.000,"PART-1-1",           486,           -3.,      -17.8125,            0.,NA,NA,"",   538.028E-03,  -499.739E-03,  -199.336E-03,   13.3543E-03
C:/temp/dataset/test2/9_6.odb,Step-1,Increment      1: Step Time =    1.000,"PART-1-1",           487,           -2.,        -18.75,            0.,NA,NA,"",   450.326E-03,  -432.561E-03,  -125.235E-03,   10.1693E-03
C:/temp/dataset/test2/9_6.odb,Step-1,Increment      1: Step Time =    1.000,"PART-1-1",           488,           -5.,      -17.8125,            0.,NA,NA,"",   610.717E-03,  -510.600E-03,  -335.057E-03,   21.4149E-03
C:/temp/dataset/test2/9_6.odb,Step-1,Increment      1: Step Time =    1.000,"PART-1-1",           489,           -4.,        -18.75,            0.,NA,NA,"",   506.236E-03,  -440.823E-03,  -248.896E-03,   18.2005E-03
C:/temp/dataset/test2/9_6.odb,Step-1,Increment      1: Step Time =    1.000,"PART-1-1",           490,            3.,      -19.6875,            0.,NA,NA,"",   417.868E-03,  -385.748E-03,   160.661E-03,   15.0929E-03
C:/temp/dataset/test2/9_6.odb,Step-1,Increment      1: Step Time =    1.000,"PART-1-1",           491,            4.,       -20.625,            0.,NA,NA,"",   393.975E-03,  -337.367E-03,   203.469E-03,   20.4869E-03
C:/temp/dataset/test2/9_6.odb,Step-1,Increment      1: Step Time =    1.000,"PART-1-1",           492,            5.,      -19.6875,            0.,NA,NA,"",   492.785E-03,  -406.543E-03,   278.495E-03,   24.1309E-03
C:/temp/dataset/test2/9_6.odb,Step-1,Increment      1: Step Time =    1.000,"PART-1-1",           493,            1.,      -19.6875,            0.,NA,NA,"",   376.861E-03,  -373.609E-03,   49.3998E-03,   7.64197E-03
C:/temp/dataset/test2/9_6.odb,Step-1,Increment      1: Step Time =    1.000,"PART-1-1",           494,            2.,       -20.625,            0.,NA,NA,"",   335.221E-03,  -320.647E-03,   97.7695E-03,   11.4071E-03
C:/temp/dataset/test2/9_6.odb,Step-1,Increment      1: Step Time =    1.000,"PART-1-1",           495,           -1.,      -19.6875,            0.,NA,NA,"",   374.942E-03,  -370.111E-03,  -59.9993E-03,   7.40009E-03
C:/temp/dataset/test2/9_6.odb,Step-1,Increment      1: Step Time =    1.000,"PART-1-1",           496,            0.,       -20.625,            0.,NA,NA,"",   312.991E-03,  -312.969E-03,  -3.65945E-03,   5.78772E-03
C:/temp/dataset/test2/9_6.odb,Step-1,Increment      1: Step Time =    1.000,"PART-1-1",           497,           -3.,      -19.6875,            0.,NA,NA,"",   412.937E-03,  -375.221E-03,  -172.412E-03,   14.7809E-03
C:/temp/dataset/test2/9_6.odb,Step-1,Increment      1: Step Time =    1.000,"PART-1-1",           498,           -2.,       -20.625,            0.,NA,NA,"",   331.670E-03,  -314.400E-03,  -105.628E-03,   11.0371E-03
C:/temp/dataset/test2/9_6.odb,Step-1,Increment      1: Step Time =    1.000,"PART-1-1",           499,           -5.,      -19.6875,            0.,NA,NA,"",   486.801E-03,  -388.878E-03,  -292.830E-03,   23.9356E-03
C:/temp/dataset/test2/9_6.odb,Step-1,Increment      1: Step Time =    1.000,"PART-1-1",           500,           -4.,       -20.625,            0.,NA,NA,"",   388.566E-03,  -324.915E-03,  -213.106E-03,   20.1924E-03
C:/temp/dataset/test2/9_6.odb,Step-1,Increment      1: Step Time =    1.000,"PART-1-1",           501,            3.,      -21.5625,            0.,NA,NA,"",   306.829E-03,  -274.029E-03,   138.030E-03,   16.6139E-03
C:/temp/dataset/test2/9_6.odb,Step-1,Increment      1: Step Time =    1.000,"PART-1-1",           502,            4.,         -22.5,            0.,NA,NA,"",   289.580E-03,  -234.285E-03,   170.198E-03,   22.5020E-03
C:/temp/dataset/test2/9_6.odb,Step-1,Increment      1: Step Time =    1.000,"PART-1-1",           503,            5.,      -21.5625,            0.,NA,NA,"",   380.164E-03,  -295.708E-03,   238.917E-03,   26.6369E-03
C:/temp/dataset/test2/9_6.odb,Step-1,Increment      1: Step Time =    1.000,"PART-1-1",           504,            1.,      -21.5625,            0.,NA,NA,"",   265.357E-03,  -261.726E-03,   43.7466E-03,   8.05016E-03
C:/temp/dataset/test2/9_6.odb,Step-1,Increment      1: Step Time =    1.000,"PART-1-1",           505,            2.,         -22.5,            0.,NA,NA,"",   232.022E-03,  -216.959E-03,   82.2370E-03,   12.4183E-03
C:/temp/dataset/test2/9_6.odb,Step-1,Increment      1: Step Time =    1.000,"PART-1-1",           506,           -1.,      -21.5625,            0.,NA,NA,"",   263.472E-03,  -258.956E-03,  -48.5746E-03,   7.71997E-03
C:/temp/dataset/test2/9_6.odb,Step-1,Increment      1: Step Time =    1.000,"PART-1-1",           507,            0.,         -22.5,            0.,NA,NA,"",   209.498E-03,  -209.494E-03,  -1.30117E-03,   5.84118E-03
C:/temp/dataset/test2/9_6.odb,Step-1,Increment      1: Step Time =    1.000,"PART-1-1",           508,           -3.,      -21.5625,            0.,NA,NA,"",   302.261E-03,  -265.795E-03,  -143.925E-03,   16.2307E-03
C:/temp/dataset/test2/9_6.odb,Step-1,Increment      1: Step Time =    1.000,"PART-1-1",           509,           -2.,         -22.5,            0.,NA,NA,"",   228.634E-03,  -212.122E-03,  -85.3099E-03,   11.9533E-03
C:/temp/dataset/test2/9_6.odb,Step-1,Increment      1: Step Time =    1.000,"PART-1-1",           510,           -5.,      -21.5625,            0.,NA,NA,"",   375.244E-03,  -282.228E-03,  -247.295E-03,   26.4324E-03
C:/temp/dataset/test2/9_6.odb,Step-1,Increment      1: Step Time =    1.000,"PART-1-1",           511,           -4.,         -22.5,            0.,NA,NA,"",   284.873E-03,  -224.876E-03,  -174.881E-03,   22.1682E-03
C:/temp/dataset/test2/9_6.odb,Step-1,Increment      1: Step Time =    1.000,"PART-1-1",           512,            3.,      -23.4375,            0.,NA,NA,"",   211.252E-03,  -179.224E-03,   111.832E-03,   18.1522E-03
C:/temp/dataset/test2/9_6.odb,Step-1,Increment      1: Step Time =    1.000,"PART-1-1",           513,            4.,       -24.375,            0.,NA,NA,"",   199.402E-03,  -148.905E-03,   132.622E-03,   24.5384E-03
C:/temp/dataset/test2/9_6.odb,Step-1,Increment      1: Step Time =    1.000,"PART-1-1",           514,            5.,      -23.4375,            0.,NA,NA,"",   280.143E-03,  -201.855E-03,   194.253E-03,   29.1166E-03
C:/temp/dataset/test2/9_6.odb,Step-1,Increment      1: Step Time =    1.000,"PART-1-1",           515,            1.,      -23.4375,            0.,NA,NA,"",   170.488E-03,  -166.603E-03,   36.1882E-03,   8.55549E-03
C:/temp/dataset/test2/9_6.odb,Step-1,Increment      1: Step Time =    1.000,"PART-1-1",           516,            2.,       -24.375,            0.,NA,NA,"",   145.624E-03,  -130.881E-03,   63.8478E-03,   13.4842E-03
C:/temp/dataset/test2/9_6.odb,Step-1,Increment      1: Step Time =    1.000,"PART-1-1",           517,           -1.,      -23.4375,            0.,NA,NA,"",   168.653E-03,  -164.478E-03,  -37.2918E-03,   8.12239E-03
C:/temp/dataset/test2/9_6.odb,Step-1,Increment      1: Step Time =    1.000,"PART-1-1",           518,            0.,       -24.375,            0.,NA,NA,"",   123.481E-03,  -123.481E-03,   64.1220E-06,   5.95889E-03
C:/temp/dataset/test2/9_6.odb,Step-1,Increment      1: Step Time =    1.000,"PART-1-1",           519,           -3.,      -23.4375,            0.,NA,NA,"",   207.128E-03,  -173.046E-03,  -113.829E-03,   17.6912E-03
C:/temp/dataset/test2/9_6.odb,Step-1,Increment      1: Step Time =    1.000,"PART-1-1",           520,           -2.,       -24.375,            0.,NA,NA,"",   142.492E-03,  -127.275E-03,  -64.0725E-03,   12.9131E-03
C:/temp/dataset/test2/9_6.odb,Step-1,Increment      1: Step Time =    1.000,"PART-1-1",           521,           -5.,      -23.4375,            0.,NA,NA,"",   276.261E-03,  -192.177E-03,  -198.464E-03,   28.9284E-03
C:/temp/dataset/test2/9_6.odb,Step-1,Increment      1: Step Time =    1.000,"PART-1-1",           522,           -4.,       -24.375,            0.,NA,NA,"",   195.477E-03,  -142.173E-03,  -134.158E-03,   24.1821E-03
C:/temp/dataset/test2/9_6.odb,Step-1,Increment      1: Step Time =    1.000,"PART-1-1",           523,            3.,      -25.3125,            0.,NA,NA,"",   131.473E-03,  -102.814E-03,   81.9418E-03,   19.9043E-03
C:/temp/dataset/test2/9_6.odb,Step-1,Increment      1: Step Time =    1.000,"PART-1-1",           524,            4.,        -26.25,            0.,NA,NA,"",   123.172E-03,  -82.9148E-03,   91.0854E-03,   26.4684E-03
C:/temp/dataset/test2/9_6.odb,Step-1,Increment      1: Step Time =    1.000,"PART-1-1",           525,            5.,      -25.3125,            0.,NA,NA,"",   192.166E-03,  -126.444E-03,   144.705E-03,   31.1792E-03
C:/temp/dataset/test2/9_6.odb,Step-1,Increment      1: Step Time =    1.000,"PART-1-1",           526,            1.,      -25.3125,            0.,NA,NA,"",   93.6510E-03,  -89.7865E-03,   26.6249E-03,   9.08607E-03
C:/temp/dataset/test2/9_6.odb,Step-1,Increment      1: Step Time =    1.000,"PART-1-1",           527,            2.,        -26.25,            0.,NA,NA,"",   76.9932E-03,  -63.9836E-03,   42.8258E-03,   14.7542E-03
C:/temp/dataset/test2/9_6.odb,Step-1,Increment      1: Step Time =    1.000,"PART-1-1",           528,           -1.,      -25.3125,            0.,NA,NA,"",   91.9358E-03,  -88.2176E-03,  -25.8814E-03,   8.54156E-03
C:/temp/dataset/test2/9_6.odb,Step-1,Increment      1: Step Time =    1.000,"PART-1-1",           529,            0.,        -26.25,            0.,NA,NA,"",   56.7051E-03,  -56.7026E-03,   536.935E-06,   6.04395E-03
C:/temp/dataset/test2/9_6.odb,Step-1,Increment      1: Step Time =    1.000,"PART-1-1",           530,           -3.,      -25.3125,            0.,NA,NA,"",   127.962E-03,  -98.3936E-03,  -81.8104E-03,   19.3795E-03
C:/temp/dataset/test2/9_6.odb,Step-1,Increment      1: Step Time =    1.000,"PART-1-1",           531,           -2.,        -26.25,            0.,NA,NA,"",   74.3560E-03,  -61.4054E-03,  -41.9307E-03,   14.1065E-03
C:/temp/dataset/test2/9_6.odb,Step-1,Increment      1: Step Time =    1.000,"PART-1-1",           532,           -5.,      -25.3125,            0.,NA,NA,"",   189.284E-03,  -120.062E-03,  -146.334E-03,   31.0029E-03
C:/temp/dataset/test2/9_6.odb,Step-1,Increment      1: Step Time =    1.000,"PART-1-1",           533,           -4.,        -26.25,            0.,NA,NA,"",   120.154E-03,  -78.4499E-03,  -91.0086E-03,   26.0975E-03
C:/temp/dataset/test2/9_6.odb,Step-1,Increment      1: Step Time =    1.000,"PART-1-1",           534,            3.,      -27.1875,            0.,NA,NA,"",   66.9790E-03,  -45.8921E-03,   48.7863E-03,   21.2131E-03
C:/temp/dataset/test2/9_6.odb,Step-1,Increment      1: Step Time =    1.000,"PART-1-1",           535,            4.,       -28.125,            0.,NA,NA,"",   56.2621E-03,  -34.0272E-03,   44.8059E-03,   28.8255E-03
C:/temp/dataset/test2/9_6.odb,Step-1,Increment      1: Step Time =    1.000,"PART-1-1",           536,            5.,      -27.1875,            0.,NA,NA,"",   116.023E-03,  -70.7448E-03,   91.9588E-03,   33.7084E-03
C:/temp/dataset/test2/9_6.odb,Step-1,Increment      1: Step Time =    1.000,"PART-1-1",           537,            1.,      -27.1875,            0.,NA,NA,"",   36.9652E-03,  -33.5222E-03,   15.5785E-03,   9.06937E-03
C:/temp/dataset/test2/9_6.odb,Step-1,Increment      1: Step Time =    1.000,"PART-1-1",           538,            2.,       -28.125,            0.,NA,NA,"",   26.9115E-03,  -18.2631E-03,   19.7658E-03,   15.1718E-03
C:/temp/dataset/test2/9_6.odb,Step-1,Increment      1: Step Time =    1.000,"PART-1-1",           539,           -1.,      -27.1875,            0.,NA,NA,"",   35.5784E-03,  -32.4455E-03,  -14.5984E-03,   8.48315E-03
C:/temp/dataset/test2/9_6.odb,Step-1,Increment      1: Step Time =    1.000,"PART-1-1",           540,            0.,       -28.125,            0.,NA,NA,"",   12.6599E-03,  -12.6553E-03,   342.003E-06,   4.91297E-03
C:/temp/dataset/test2/9_6.odb,Step-1,Increment      1: Step Time =    1.000,"PART-1-1",           541,           -3.,      -27.1875,            0.,NA,NA,"",   64.4181E-03,  -42.9658E-03,  -47.9962E-03,   20.6052E-03
C:/temp/dataset/test2/9_6.odb,Step-1,Increment      1: Step Time =    1.000,"PART-1-1",           542,           -2.,       -28.125,            0.,NA,NA,"",   25.3584E-03,  -16.7205E-03,  -19.0649E-03,   14.4439E-03
C:/temp/dataset/test2/9_6.odb,Step-1,Increment      1: Step Time =    1.000,"PART-1-1",           543,           -5.,      -27.1875,            0.,NA,NA,"",   114.045E-03,  -67.0476E-03,  -92.2548E-03,   33.6216E-03
C:/temp/dataset/test2/9_6.odb,Step-1,Increment      1: Step Time =    1.000,"PART-1-1",           544,           -4.,       -28.125,            0.,NA,NA,"",   54.2620E-03,  -31.4496E-03,  -44.2186E-03,   28.4447E-03
C:/temp/dataset/test2/9_6.odb,Step-1,Increment      1: Step Time =    1.000,"PART-1-1",           545,            3.,      -29.0625,            0.,NA,NA,"",   16.2524E-03,  -7.71629E-03,   14.3038E-03,   19.1823E-03
C:/temp/dataset/test2/9_6.odb,Step-1,Increment      1: Step Time =    1.000,"PART-1-1",           546,            4.,          -30.,            0.,NA,NA,"",            0.,   8.18919E-42,   36.1153E-39,   29.6582E-03
C:/temp/dataset/test2/9_6.odb,Step-1,Increment      1: Step Time =    1.000,"PART-1-1",           547,            5.,      -29.0625,            0.,NA,NA,"",   43.2051E-03,  -28.8552E-03,   32.1567E-03,   38.1703E-03
C:/temp/dataset/test2/9_6.odb,Step-1,Increment      1: Step Time =    1.000,"PART-1-1",           548,            1.,      -29.0625,            0.,NA,NA,"",   5.24134E-03,  -2.45615E-03,   4.63022E-03,   6.16139E-03
C:/temp/dataset/test2/9_6.odb,Step-1,Increment      1: Step Time =    1.000,"PART-1-1",           549,            2.,          -30.,            0.,NA,NA,"",            0.,   525.315E-42,   17.6104E-39,   11.0843E-03
C:/temp/dataset/test2/9_6.odb,Step-1,Increment      1: Step Time =    1.000,"PART-1-1",           550,           -1.,      -29.0625,            0.,NA,NA,"",   4.78624E-03,  -1.98516E-03,  -4.35513E-03,   5.75125E-03
C:/temp/dataset/test2/9_6.odb,Step-1,Increment      1: Step Time =    1.000,"PART-1-1",           551,            0.,          -30.,            0.,NA,NA,"",            0.,   1.97543E-39,   30.8188E-42,   1.82690E-03
C:/temp/dataset/test2/9_6.odb,Step-1,Increment      1: Step Time =    1.000,"PART-1-1",           552,           -3.,      -29.0625,            0.,NA,NA,"",   15.3798E-03,  -6.41942E-03,  -13.9760E-03,   18.6006E-03
C:/temp/dataset/test2/9_6.odb,Step-1,Increment      1: Step Time =    1.000,"PART-1-1",           553,           -2.,          -30.,            0.,NA,NA,"",            0.,   848.276E-42,  -17.4908E-39,   10.8953E-03
C:/temp/dataset/test2/9_6.odb,Step-1,Increment      1: Step Time =    1.000,"PART-1-1",           554,           -5.,      -29.0625,            0.,NA,NA,"",   42.1269E-03,  -27.5718E-03,  -31.8508E-03,   37.5635E-03
C:/temp/dataset/test2/9_6.odb,Step-1,Increment      1: Step Time =    1.000,"PART-1-1",           555,           -4.,          -30.,            0.,NA,NA,"",            0.,   457.001E-42,  -35.7123E-39,   28.8446E-03
